 vasp.5.4.1 05Feb16 (build Aug 30 2019 09:58:18) complex

 executed on           IFC91_ompi date 2021.10.03  23:58:38

 INCAR:
 POTCAR:    PAW_PBE Mn_pv 02Aug2007
 POTCAR:    PAW_PBE Fe_pv 02Aug2007
 POTCAR:    PAW_PBE As 22Sep2009
 POTCAR:    PAW_PBE Mn_pv 02Aug2007
   VRHFIN =Mn: 3p4s3d

   TITEL  = PAW_PBE Mn_pv 02Aug2007
   POMASS =   54.938; ZVAL   =   13.000    mass and valenz
   ENMAX  =  269.864; ENMIN  =  202.398 eV

 POTCAR:    PAW_PBE Fe_pv 02Aug2007
   VRHFIN =Fe:  3pd7s1

   TITEL  = PAW_PBE Fe_pv 02Aug2007
   POMASS =   55.847; ZVAL   =   14.000    mass and valenz
   ENMAX  =  293.238; ENMIN  =  219.928 eV

 POTCAR:    PAW_PBE As 22Sep2009
   VRHFIN =As: s2p3

   TITEL  = PAW_PBE As 22Sep2009
   POMASS =   74.922; ZVAL   =    5.000    mass and valenz
   ENMAX  =  208.702; ENMIN  =  156.526 eV

  PAW_PBE Mn_pv 02Aug2007               :
  PAW_PBE Fe_pv 02Aug2007               :
  PAW_PBE As 22Sep2009                  :

 POSCAR: Mn Fe As
  positions in direct lattice
  velocities in cartesian coordinates
 exchange correlation table for  LEXCH =        8
   RHO(1)=    0.500       N(1)  =     2000
   RHO(2)=  100.500       N(2)  =     4000

 ion  position               nearest neighbor table
   1  0.750  0.750  0.750-   3 2.47   4 2.47   4 2.47   4 2.47   4 2.47   3 2.47   3 2.47   3 2.47
                             2 2.85   2 2.85   2 2.85   2 2.85   2 2.85   2 2.85
   2  0.250  0.250  0.250-   3 2.47   4 2.47   3 2.47   3 2.47   3 2.47   4 2.47   4 2.47   4 2.47
                             1 2.85   1 2.85   1 2.85   1 2.85   1 2.85   1 2.85
   3  0.000  0.000  0.000-   1 2.47   2 2.47   1 2.47   1 2.47   1 2.47   2 2.47   2 2.47   2 2.47
                             4 2.85   4 2.85   4 2.85   4 2.85   4 2.85   4 2.85
   4  0.500  0.500  0.500-   1 2.47   2 2.47   2 2.47   2 2.47   2 2.47   1 2.47   1 2.47   1 2.47
                             3 2.85   3 2.85   3 2.85   3 2.85   3 2.85   3 2.85

  LATTYP: Found a face centered cubic cell.
 ALAT       =     5.6978522995

  Lattice vectors:

 A1 = (   0.0000000000,   2.8489261498,   2.8489261498)
 A2 = (   2.8489261498,   0.0000000000,   2.8489261498)
 A3 = (   2.8489261498,   2.8489261498,   0.0000000000)

Analysis of symmetry for initial positions (statically):
 Subroutine PRICEL returns:
 Original cell was already a primitive cell.

 Routine SETGRP: Setting up the symmetry group for a
 face centered cubic supercell.

 Subroutine GETGRP returns: Found 48 space group operations
 (whereof 48 operations were pure point group operations)
 out of a pool of 48 trial point group operations.

The static configuration has the point symmetry O_h .

Analysis of symmetry for dynamics (positions and initial velocities):
 Subroutine PRICEL returns:
 Original cell was already a primitive cell.

[...]

The dynamic configuration has the point symmetry O_h .

Analysis of structural, dynamic, and magnetic symmetry:
 Subroutine PRICEL returns:
 Original cell was already a primitive cell.

 Routine SETGRP: Setting up the symmetry group for a
 face centered cubic supercell.

 Subroutine GETGRP returns: Found 24 space group operations
 (whereof 24 operations were pure point group operations)
 out of a pool of 48 trial point group operations.

The magnetic configuration has the point symmetry T_d .

 Subroutine INISYM returns: Found 24 space group operations
 (whereof 24 operations are pure point group operations),
 and found     1 'primitive' translations

 KPOINTS: Automatic Mesh # Generates Automatically

Automatic generation of k-mesh.
Space group operators:
 irot       det(A)        alpha          n_x          n_y          n_z        tau_x        tau_y        tau_z
    1     1.000000     0.000000     1.000000     0.000000     0.000000     0.000000     0.000000     0.000000
    2     1.000000   120.000000    -0.577350    -0.577350    -0.577350     0.000000     0.000000     0.000000
    3     1.000000   120.000000     0.577350     0.577350     0.577350     0.000000     0.000000     0.000000
    4    -1.000000    90.000000     0.000000     0.000000    -1.000000     0.000000     0.000000     0.000000
    5    -1.000000   180.000000     0.000000     0.707107     0.707107     0.000000     0.000000     0.000000
    6    -1.000000    90.000000     0.000000     1.000000     0.000000     0.000000     0.000000     0.000000
    7     1.000000   180.000000     0.000000     0.000000     1.000000     0.000000     0.000000     0.000000
    8     1.000000   120.000000    -0.577350     0.577350     0.577350     0.000000     0.000000     0.000000
    9     1.000000   120.000000    -0.577350     0.577350    -0.577350     0.000000     0.000000     0.000000
   10    -1.000000    90.000000     0.000000     0.000000     1.000000     0.000000     0.000000     0.000000
   11    -1.000000    90.000000    -1.000000     0.000000     0.000000     0.000000     0.000000     0.000000
   12    -1.000000   180.000000     0.707107     0.000000     0.707107     0.000000     0.000000     0.000000
   13     1.000000   120.000000     0.577350    -0.577350     0.577350     0.000000     0.000000     0.000000
   14     1.000000   120.000000    -0.577350    -0.577350     0.577350     0.000000     0.000000     0.000000
   15     1.000000   180.000000     1.000000     0.000000     0.000000     0.000000     0.000000     0.000000
   16    -1.000000    90.000000     0.000000    -1.000000     0.000000     0.000000     0.000000     0.000000
   17    -1.000000   180.000000     0.707107     0.707107     0.000000     0.000000     0.000000     0.000000
   18    -1.000000    90.000000     1.000000     0.000000     0.000000     0.000000     0.000000     0.000000
   19     1.000000   120.000000     0.577350    -0.577350    -0.577350     0.000000     0.000000     0.000000
   20     1.000000   180.000000     0.000000     1.000000     0.000000     0.000000     0.000000     0.000000
   21     1.000000   120.000000     0.577350     0.577350    -0.577350     0.000000     0.000000     0.000000
   22    -1.000000   180.000000     0.000000    -0.707107     0.707107     0.000000     0.000000     0.000000
   23    -1.000000   180.000000     0.707107    -0.707107     0.000000     0.000000     0.000000     0.000000
   24    -1.000000   180.000000     0.707107     0.000000    -0.707107     0.000000     0.000000     0.000000

 Subroutine IBZKPT returns following result:

 Found    120 irreducible k-points:

 Following reciprocal coordinates:
            Coordinates               Weight
  0.000000  0.000000  0.000000      1.000000
  0.066667  0.000000  0.000000      8.000000
  0.133333  0.000000  0.000000      8.000000
  0.200000  0.000000  0.000000      8.000000
  0.266667  0.000000  0.000000      8.000000
  0.333333  0.000000  0.000000      8.000000
  0.400000  0.000000  0.000000      8.000000
  0.466667  0.000000  0.000000      8.000000
  0.066667  0.066667  0.000000      6.000000
  0.133333  0.066667  0.000000     24.000000
  0.200000  0.066667  0.000000     24.000000
  0.266667  0.066667  0.000000     24.000000
  0.333333  0.066667  0.000000     24.000000
  0.400000  0.066667  0.000000     24.000000
  0.466667  0.066667  0.000000     24.000000
 -0.466667  0.066667  0.000000     24.000000
 -0.400000  0.066667  0.000000     24.000000
 -0.333333  0.066667  0.000000     24.000000
 -0.266667  0.066667  0.000000     24.000000
 -0.200000  0.066667  0.000000     24.000000
 -0.133333  0.066667  0.000000     24.000000
 -0.066667  0.066667  0.000000     12.000000
  0.133333  0.133333  0.000000      6.000000
  0.200000  0.133333  0.000000     24.000000
  0.266667  0.133333  0.000000     24.000000
  0.333333  0.133333  0.000000     24.000000
  0.400000  0.133333  0.000000     24.000000
  0.466667  0.133333  0.000000     24.000000
 -0.466667  0.133333  0.000000     24.000000
 -0.400000  0.133333  0.000000     24.000000
 -0.333333  0.133333  0.000000     24.000000
 -0.266667  0.133333  0.000000     24.000000
 -0.200000  0.133333  0.000000     24.000000
 -0.133333  0.133333  0.000000     12.000000
  0.200000  0.200000  0.000000      6.000000
  0.266667  0.200000  0.000000     24.000000
  0.333333  0.200000  0.000000     24.000000
  0.400000  0.200000  0.000000     24.000000
  0.466667  0.200000  0.000000     24.000000
 -0.466667  0.200000  0.000000     24.000000
 -0.400000  0.200000  0.000000     24.000000
 -0.333333  0.200000  0.000000     24.000000
 -0.266667  0.200000  0.000000     24.000000
 -0.200000  0.200000  0.000000     12.000000
  0.266667  0.266667  0.000000      6.000000
  0.333333  0.266667  0.000000     24.000000
  0.400000  0.266667  0.000000     24.000000
  0.466667  0.266667  0.000000     24.000000
 -0.466667  0.266667  0.000000     24.000000
 -0.400000  0.266667  0.000000     24.000000
 -0.333333  0.266667  0.000000     24.000000
 -0.266667  0.266667  0.000000     12.000000
  0.333333  0.333333  0.000000      6.000000
  0.400000  0.333333  0.000000     24.000000
  0.466667  0.333333  0.000000     24.000000
 -0.466667  0.333333  0.000000     24.000000
 -0.400000  0.333333  0.000000     24.000000
 -0.333333  0.333333  0.000000     12.000000
  0.400000  0.400000  0.000000      6.000000
  0.466667  0.400000  0.000000     24.000000
[...]
 -0.466667  0.333333  0.133333     48.000000
 -0.400000  0.333333  0.133333     48.000000
 -0.333333  0.333333  0.133333     48.000000
 -0.266667  0.333333  0.133333     48.000000
 -0.200000  0.333333  0.133333     24.000000
 -0.466667  0.400000  0.133333     24.000000
 -0.400000  0.400000  0.133333     48.000000
 -0.333333  0.400000  0.133333     48.000000
 -0.266667  0.400000  0.133333     24.000000
 -0.400000  0.466667  0.133333     24.000000
 -0.333333  0.466667  0.133333     24.000000
 -0.400000  0.400000  0.200000     24.000000
 -0.333333  0.400000  0.200000     48.000000
 -0.333333  0.466667  0.200000     24.000000
 -0.266667  0.466667  0.200000     24.000000

 Following cartesian coordinates:
            Coordinates               Weight
  0.000000  0.000000  0.000000      1.000000
 -0.064352  0.064352  0.064352      8.000000
 -0.128703  0.128703  0.128703      8.000000
 -0.193055  0.193055  0.193055      8.000000
 -0.257407  0.257407  0.257407      8.000000
 -0.321759  0.321759  0.321759      8.000000
 -0.386110  0.386110  0.386110      8.000000
 -0.450462  0.450462  0.450462      8.000000
  0.000000  0.000000  0.128703      6.000000
 -0.064352  0.064352  0.193055     24.000000
 -0.128703  0.128703  0.257407     24.000000
 -0.193055  0.193055  0.321759     24.000000
 -0.257407  0.257407  0.386110     24.000000
 -0.321759  0.321759  0.450462     24.000000
 -0.386110  0.386110  0.514814     24.000000
  0.514814 -0.514814 -0.386110     24.000000
  0.450462 -0.450462 -0.321759     24.000000
  0.386110 -0.386110 -0.257407     24.000000
  0.321759 -0.321759 -0.193055     24.000000
  0.257407 -0.257407 -0.128703     24.000000
  0.193055 -0.193055 -0.064352     24.000000
  0.128703 -0.128703  0.000000     12.000000
  0.000000  0.000000  0.257407      6.000000
 -0.064352  0.064352  0.321759     24.000000
 -0.128703  0.128703  0.386110     24.000000
 -0.193055  0.193055  0.450462     24.000000
 -0.257407  0.257407  0.514814     24.000000
[...]
   0.50000000  0.50000000  0.50000000

 position of ions in cartesian coordinates  (Angst):
   4.27338922  4.27338922  4.27338922
   1.42446307  1.42446307  1.42446307
   0.00000000  0.00000000  0.00000000
   2.84892615  2.84892615  2.84892615

 k-point  1 :   0.0000 0.0000 0.0000  plane waves:    1211
 k-point  2 :   0.0667 0.0000 0.0000  plane waves:    1209
 k-point  3 :   0.1333 0.0000 0.0000  plane waves:    1197
 k-point  4 :   0.2000 0.0000 0.0000  plane waves:    1173
 k-point  5 :   0.2667 0.0000 0.0000  plane waves:    1176
 k-point  6 :   0.3333 0.0000 0.0000  plane waves:    1167
 k-point  7 :   0.4000 0.0000 0.0000  plane waves:    1173
 k-point  8 :   0.4667 0.0000 0.0000  plane waves:    1170
 k-point  9 :   0.0667 0.0667 0.0000  plane waves:    1203
 k-point 10 :   0.1333 0.0667 0.0000  plane waves:    1192
 k-point 11 :   0.2000 0.0667 0.0000  plane waves:    1182
 k-point 12 :   0.2667 0.0667 0.0000  plane waves:    1183
 k-point 13 :   0.3333 0.0667 0.0000  plane waves:    1172
 k-point 14 :   0.4000 0.0667 0.0000  plane waves:    1172
 k-point 15 :   0.4667 0.0667 0.0000  plane waves:    1176
 k-point 16 :  -0.4667 0.0667 0.0000  plane waves:    1174
 k-point 17 :  -0.4000 0.0667 0.0000  plane waves:    1175
 k-point 18 :  -0.3333 0.0667 0.0000  plane waves:    1167
 k-point 19 :  -0.2667 0.0667 0.0000  plane waves:    1176
 k-point 20 :  -0.2000 0.0667 0.0000  plane waves:    1181
 k-point 21 :  -0.1333 0.0667 0.0000  plane waves:    1185
 k-point 22 :  -0.0667 0.0667 0.0000  plane waves:    1189
 k-point 23 :   0.1333 0.1333 0.0000  plane waves:    1187
 k-point 24 :   0.2000 0.1333 0.0000  plane waves:    1178
 k-point 25 :   0.2667 0.1333 0.0000  plane waves:    1177
 k-point 26 :   0.3333 0.1333 0.0000  plane waves:    1172
 k-point 27 :   0.4000 0.1333 0.0000  plane waves:    1177
 k-point 28 :   0.4667 0.1333 0.0000  plane waves:    1174
 k-point 29 :  -0.4667 0.1333 0.0000  plane waves:    1171
 k-point 30 :  -0.4000 0.1333 0.0000  plane waves:    1175
 k-point 31 :  -0.3333 0.1333 0.0000  plane waves:    1172
 k-point 32 :  -0.2667 0.1333 0.0000  plane waves:    1172
 k-point 33 :  -0.2000 0.1333 0.0000  plane waves:    1181
 k-point 34 :  -0.1333 0.1333 0.0000  plane waves:    1173
 k-point 35 :   0.2000 0.2000 0.0000  plane waves:    1170
 k-point 36 :   0.2667 0.2000 0.0000  plane waves:    1179
 k-point 37 :   0.3333 0.2000 0.0000  plane waves:    1175
 k-point 38 :   0.4000 0.2000 0.0000  plane waves:    1189
 k-point 39 :   0.4667 0.2000 0.0000  plane waves:    1172
 k-point 40 :  -0.4667 0.2000 0.0000  plane waves:    1172
 k-point 41 :  -0.4000 0.2000 0.0000  plane waves:    1163
 k-point 42 :  -0.3333 0.2000 0.0000  plane waves:    1171
 k-point 43 :  -0.2667 0.2000 0.0000  plane waves:    1178
 k-point 44 :  -0.2000 0.2000 0.0000  plane waves:    1169
 k-point 45 :   0.2667 0.2667 0.0000  plane waves:    1182
 k-point 46 :   0.3333 0.2667 0.0000  plane waves:    1175
 k-point 47 :   0.4000 0.2667 0.0000  plane waves:    1181
 k-point 48 :   0.4667 0.2667 0.0000  plane waves:    1179
 k-point 49 :  -0.4667 0.2667 0.0000  plane waves:    1169
 k-point 50 :  -0.4000 0.2667 0.0000  plane waves:    1168
 k-point 51 :  -0.3333 0.2667 0.0000  plane waves:    1170
 k-point 52 :  -0.2667 0.2667 0.0000  plane waves:    1171
 k-point 53 :   0.3333 0.3333 0.0000  plane waves:    1174
 k-point 54 :   0.4000 0.3333 0.0000  plane waves:    1177
 k-point 55 :   0.4667 0.3333 0.0000  plane waves:    1177
 k-point 56 :  -0.4667 0.3333 0.0000  plane waves:    1167
 k-point 57 :  -0.4000 0.3333 0.0000  plane waves:    1162
 k-point 58 :  -0.3333 0.3333 0.0000  plane waves:    1182
 k-point 59 :   0.4000 0.4000 0.0000  plane waves:    1190
 k-point 60 :   0.4667 0.4000 0.0000  plane waves:    1174
[...]
 k-point 85 :  -0.4000 0.2667 0.0667  plane waves:    1172
 k-point 86 :  -0.3333 0.2667 0.0667  plane waves:    1168
 k-point 87 :  -0.2667 0.2667 0.0667  plane waves:    1167
 k-point 88 :  -0.2000 0.2667 0.0667  plane waves:    1171
 k-point 89 :   0.4000 0.3333 0.0667  plane waves:    1174
 k-point 90 :   0.4667 0.3333 0.0667  plane waves:    1177
 k-point 91 :  -0.4667 0.3333 0.0667  plane waves:    1177
 k-point 92 :  -0.4000 0.3333 0.0667  plane waves:    1168
 k-point 93 :  -0.3333 0.3333 0.0667  plane waves:    1166
 k-point 94 :  -0.2667 0.3333 0.0667  plane waves:    1168
 k-point 95 :   0.4667 0.4000 0.0667  plane waves:    1172
 k-point 96 :  -0.4667 0.4000 0.0667  plane waves:    1172
 k-point 97 :  -0.4000 0.4000 0.0667  plane waves:    1170
 k-point 98 :  -0.3333 0.4000 0.0667  plane waves:    1169
 k-point 99 :  -0.4667 0.4667 0.0667  plane waves:    1178
 k-point ** :  -0.4000 0.4667 0.0667  plane waves:    1171
 k-point ** :   0.4000 0.2667 0.1333  plane waves:    1184
 k-point ** :   0.4667 0.2667 0.1333  plane waves:    1176
 k-point ** :  -0.4667 0.2667 0.1333  plane waves:    1175
 k-point ** :  -0.4000 0.2667 0.1333  plane waves:    1171
 k-point ** :   0.4667 0.3333 0.1333  plane waves:    1171
 k-point ** :  -0.4667 0.3333 0.1333  plane waves:    1175
 k-point ** :  -0.4000 0.3333 0.1333  plane waves:    1175
 k-point ** :  -0.3333 0.3333 0.1333  plane waves:    1175
 k-point ** :  -0.2667 0.3333 0.1333  plane waves:    1172
 k-point ** :  -0.2000 0.3333 0.1333  plane waves:    1172
 k-point ** :  -0.4667 0.4000 0.1333  plane waves:    1181
 k-point ** :  -0.4000 0.4000 0.1333  plane waves:    1177
 k-point ** :  -0.3333 0.4000 0.1333  plane waves:    1172
 k-point ** :  -0.2667 0.4000 0.1333  plane waves:    1175
 k-point ** :  -0.4000 0.4667 0.1333  plane waves:    1173
 k-point ** :  -0.3333 0.4667 0.1333  plane waves:    1174
 k-point ** :  -0.4000 0.4000 0.2000  plane waves:    1175
 k-point ** :  -0.3333 0.4000 0.2000  plane waves:    1174
 k-point ** :  -0.3333 0.4667 0.2000  plane waves:    1172
 k-point ** :  -0.2667 0.4667 0.2000  plane waves:    1180

 maximum and minimum number of plane-waves per node :      1211     1156

 maximum number of plane-waves:      1211
 maximum index in each direction:
   IXMAX=    7   IYMAX=    7   IZMAX=    7
   IXMIN=   -7   IYMIN=   -7   IZMIN=   -7

 NGX is ok and might be reduce to  30
 NGY is ok and might be reduce to  30
 NGZ is ok and might be reduce to  30

 serial   3D FFT for wavefunctions
 parallel 3D FFT for charge:
    minimum data exchange during FFTs selected (reduces bandwidth)

 Broyden mixing: mesh for mixing (old mesh)
   NGX = 15   NGY = 15   NGZ = 15
  (NGX  = 60   NGY  = 60   NGZ  = 60)
  gives a total of   3375 points

 initial charge density was supplied:
 charge density of overlapping atoms calculated
 number of electron      45.0000000 magnetization      -0.5000000
 keeping initial charge density in first step

 Maximum index for augmentation-charges        46879 (set IRDMAX)

 First call to EWALD:  gamma=   0.494
 Maximum number of real-space cells 3x 3x 3
 Maximum number of reciprocal cells 3x 3x 3

 FEWALD executed in parallel

----------------------------------------- Iteration    1(   1)  ---------------------------------------

 eigenvalue-minimisations  : 14112
 total energy-change (2. order) : 0.5139915E+03  (-0.2531520E+04)
 number of electron      45.0000000 magnetization      -0.5000000
 augmentation part       45.0000000 magnetization      -0.5000000

 Free energy of the ion-electron system (eV)
  alpha Z        PSCENC =       313.80693554
  Ewald energy   TEWEN  =     -4897.95381838
  -Hartree energ DENC   =     -1733.27789859
  -exchange      EXHF   =         0.00000000
  -V(xc)+E(xc)   XCENC  =       200.63937207
  PAW double counting   =      5439.98770429    -5609.87680171
  entropy T*S    EENTRO =        -0.00268819
  eigenvalues    EBANDS =       122.54509183
  atomic energy  EATOM  =      6678.12361163
  Solvation  Ediel_sol  =         0.00000000
  free energy    TOTEN  =       513.99150849 eV

  energy without entropy =      513.99419668  energy(sigma->0) =      513.99285259

[...]

 eigenvalue-minimisations  : 13476
 total energy-change (2. order) :-0.5114742E+03  (-0.4987849E+03)
 number of electron      45.0000000 magnetization      -0.5000000
 augmentation part       45.0000000 magnetization      -0.5000000

[...]

 Broyden mixing:
  rms(total) = 0.22745E+01    rms(broyden)= 0.22744E+01
  rms(prec ) = 0.43197E+01
  weight for this iteration     100.00

[...]

 eigenvalues of (default mixing * dielectric matrix)
  average eigenvalue GAMMA=   0.5540
  0.5540

[...]

 eigenvalue-minimisations  : 16113
 total energy-change (2. order) :-0.8598363E-08  (-0.1764876E-05)
 number of electron      45.0000001 magnetization      -2.9394289
 augmentation part       22.3220791 magnetization      -2.1541183

 Broyden mixing:
  rms(total) = 0.19769E-03    rms(broyden)= 0.18463E-03
  rms(prec ) = 0.26484E-03
  weight for this iteration     100.00

[...]

 Broyden mixing:
  rms(total) = 0.12340E-03    rms(broyden)= 0.10153E-03
  rms(prec ) = 0.17661E-03
  weight for this iteration     100.00
  WARNING: grid for Broyden might be to small

 eigenvalues of (default mixing * dielectric matrix)
  average eigenvalue GAMMA=   1.5341
  7.9982  3.3679  2.4086  2.4086  1.6029  1.6029  0.1283  0.1382  1.1095  1.1095
  0.8911  0.8911  0.7869  0.6816  0.6509  0.6509  0.6077  0.5784

[...]

----------------------------------------- Iteration    1(  25)  ---------------------------------------

 eigenvalue-minimisations  : 11537
 total energy-change (2. order) : 0.8497136E-07  (-0.6452562E-07)
 number of electron      45.0000001 magnetization      -2.9393921
 augmentation part       22.3220083 magnetization      -2.1541582

 Free energy of the ion-electron system (eV)
  alpha Z        PSCENC =       313.80693554
  Ewald energy   TEWEN  =     -4897.95381838
  -Hartree energ DENC   =     -1642.82086977
  -exchange      EXHF   =         0.00000000
  -V(xc)+E(xc)   XCENC  =       196.72141213
  PAW double counting   =      6213.59011022    -6388.38283736
  entropy T*S    EENTRO =        -0.00588350
  eigenvalues    EBANDS =      -503.86439092
  atomic energy  EATOM  =      6678.12361163
  Solvation  Ediel_sol  =         0.00000000
  free energy    TOTEN  =       -30.78573041 eV

  energy without entropy =      -30.77984691  energy(sigma->0) =      -30.78278866

 average (electrostatic) potential at core
  the test charge radii are     0.9577  0.9500  1.0621
  (the norm of the test charge is              1.0000)
       1 -63.7007       2 -63.7004       3 -73.2647       4 -44.7731

 E-fermi :  10.9397     XC(G=0): -13.4363     alpha+bet :-17.9943

 spin component 1

 k-point     1 :       0.0000    0.0000    0.0000
  band No.  band energies     occupation
      1     -41.4318      1.00000
      2     -41.4318      1.00000
      3     -41.4318      1.00000
      4     -36.8328      1.00000
      5     -36.8328      1.00000
      6     -36.8328      1.00000
      7     -36.7423      1.00000
      8     -36.7423      1.00000
      9     -36.7423      1.00000
     10      -3.1370      1.00000
     11       5.8774      1.00000
     12       5.8774      1.00000
     13       5.8774      1.00000
     14       7.4416      1.00000
     15       7.4416      1.00000
     16       8.9077      1.00000
     17       8.9077      1.00000
     18       8.9077      1.00000
     19      10.9980      0.04941
     20      11.2256      0.00000
     21      11.2256      0.00000
     22      11.2256      0.00000
     23      11.8384      0.00000
     24      11.8384      0.00000
     25      12.0289      0.00000
     26      12.0289      0.00000
     27      14.0341      0.00000
     28      14.0341      0.00000

[...]

 spin component 2

[...]

 k-point   120 :      -0.2667    0.4667    0.2000
  band No.  band energies     occupation
      1     -44.0860      1.00000
      2     -44.0846      1.00000
      3     -44.0843      1.00000
      4     -37.1530      1.00000
      5     -37.1484      1.00000
      6     -37.0956      1.00000
      7     -37.0845      1.00000
      8     -37.0352      1.00000
      9     -37.0332      1.00000
     10      -1.4809      1.00000
     11       4.2926      1.00000
     12       4.4346      1.00000
     13       5.3854      1.00000
     14       6.8179      1.00000
     15       7.5578      1.00000
     16       7.6247      1.00000
     17       7.6692      1.00000
     18       8.1326      1.00000
     19       9.1149      1.00000
     20       9.1229      1.00000
     21       9.1904      1.00000
     22       9.8489      1.00000
     23      10.2976      1.00000
     24      10.4244      1.00000
     25      10.5358      1.00000
     26      11.4238      0.00000
     27      11.7798      0.00000
     28      11.8015      0.00000

 soft charge-density along one line, spin component           1
         0         1         2         3         4         5         6         7         8         9
 total charge-density along one line

 soft charge-density along one line, spin component           2
         0         1         2         3         4         5         6         7         8         9
 total charge-density along one line

------------------------ aborting loop because EDIFF is reached ----------------------------------------

 total charge

# of ion     s       p       d       tot
  1        0.309   6.328   5.328  11.965
  2        0.309   6.328   5.328  11.965
  3        0.376   6.385   6.108  12.870
  4        1.148   1.532   0.160   2.841
tot        2.143  20.574  16.924  39.640

 magnetization (x)

[...]

  FORCE on cell =-STRESS in cart. coord.  units (eV):
  Direction    XX          YY          ZZ          XY          YZ          ZX
  Alpha Z   313.80694   313.80694   313.80694
  Ewald   -1632.65261 -1632.65261 -1632.65261     0.00000     0.00000     0.00000
  Hartree   547.60737   547.60737   547.60737     0.00000     0.00000     0.00000
  E(xc)    -265.27970  -265.27970  -265.27970     0.00001     0.00001     0.00001
  Local     296.42891   296.42891   296.42891     0.00021     0.00021     0.00021
  n-local   -70.89222   -70.58104   -71.52582    -1.92692     1.59848    -1.63632
  augment   335.02809   335.02809   335.02808    -0.00018    -0.00019    -0.00019
  Kinetic   476.94040   477.54442   473.65921    -1.58331     1.69094    -1.65127
  Fock        0.00000     0.00000     0.00000     0.00000     0.00000     0.00000
  Total      -0.01269    -0.01269    -0.01269     0.00000     0.00000     0.00000
  in kB      -0.43979    -0.43979    -0.43979     0.00000     0.00000     0.00000

 VOLUME and BASIS-vectors are now :
  energy-cutoff  :      500.00
  volume of cell :       46.25
      direct lattice vectors                 reciprocal lattice vectors
     0.000000000  2.848926150  2.848926150    -0.175504725  0.175504725  0.175504725
     2.848926150  0.000000000  2.848926150     0.175504725 -0.175504725  0.175504725
     2.848926150  2.848926150  0.000000000     0.175504725  0.175504725 -0.175504725

  length of vectors
     4.028989999  4.028989999  4.028989999     0.303983100  0.303983100  0.303983100

 FORCES acting on ions
    electron-ion (+dipol)            ewald-force                    non-local-force                 convergence-correction
   0.444E-06 0.444E-06 0.518E-06   -.543E-13 -.580E-13 -.586E-13   0.971E-16 0.111E-15 0.104E-15   -.583E-08 -.583E-08 -.583E-08
   -.444E-06 -.444E-06 -.518E-06   0.388E-13 0.737E-13 0.433E-13   0.139E-15 0.139E-15 0.146E-15   -.405E-09 -.405E-09 -.405E-09
   -.387E-10 -.388E-10 -.392E-10   0.870E-14 -.117E-13 0.908E-14   0.678E-20 -.339E-20 0.339E-20   -.120E-08 -.120E-08 -.120E-08
   0.204E-11 0.828E-12 -.526E-12   0.552E-14 -.433E-14 0.388E-14   -.212E-20 -.127E-20 -.741E-21   0.650E-10 0.650E-10 0.650E-10
   -.932E-11 -.213E-10 -.127E-10   -.137E-14 -.352E-15 -.229E-14   0.236E-15 0.250E-15 0.250E-15   -.736E-08 -.736E-08 -.736E-08

 POSITION                                       TOTAL-FORCE (eV/Angst)
      4.27339      4.27339      4.27339        -0.000000      0.000000      0.000000
      1.42446      1.42446      1.42446         0.000000     -0.000000     -0.000000
      0.00000      0.00000      0.00000        -0.000000     -0.000000     -0.000000
      2.84893      2.84893      2.84893        -0.000000     -0.000000     -0.000000
    total drift:                               -0.000000     -0.000000     -0.000000

  FREE ENERGIE OF THE ION-ELECTRON SYSTEM (eV)
  free  energy   TOTEN  =       -30.78573041 eV

  energy  without entropy=      -30.77984691  energy(sigma->0) =      -30.78278866

 total charge

[...]

 magnetization (x)

# of ion     s       p       d       tot
  1        0.004   0.010  -0.265  -0.251
  2        0.004   0.010  -0.267  -0.253
  3       -0.013  -0.016  -2.348  -2.377
  4       -0.019  -0.024   0.005  -0.038
tot       -0.024  -0.021  -2.874  -2.919