 vasp.5.4.1 05Feb16 (build Aug 30 2019 09:58:18) complex

 executed on           IFC91_ompi date 2021.10.04  00:10:22

 INCAR:
 POTCAR:    PAW_PBE Mn_pv 02Aug2007
 POTCAR:    PAW_PBE Fe_pv 02Aug2007
 POTCAR:    PAW_PBE As 22Sep2009
 POTCAR:    PAW_PBE Mn_pv 02Aug2007
   VRHFIN =Mn: 3p4s3d

   TITEL  = PAW_PBE Mn_pv 02Aug2007
   POMASS =   54.938; ZVAL   =   13.000    mass and valenz
   ENMAX  =  269.864; ENMIN  =  202.398 eV

 POTCAR:    PAW_PBE Fe_pv 02Aug2007
   VRHFIN =Fe:  3pd7s1

   TITEL  = PAW_PBE Fe_pv 02Aug2007
   POMASS =   55.847; ZVAL   =   14.000    mass and valenz
   ENMAX  =  293.238; ENMIN  =  219.928 eV

 POTCAR:    PAW_PBE As 22Sep2009
   VRHFIN =As: s2p3

   TITEL  = PAW_PBE As 22Sep2009
   POMASS =   74.922; ZVAL   =    5.000    mass and valenz
   ENMAX  =  208.702; ENMIN  =  156.526 eV

  PAW_PBE Mn_pv 02Aug2007               :
  PAW_PBE Fe_pv 02Aug2007               :
  PAW_PBE As 22Sep2009                  :

 POSCAR: Mn Fe As
  positions in direct lattice
  velocities in cartesian coordinates
 exchange correlation table for  LEXCH =        8
   RHO(1)=    0.500       N(1)  =     2000
   RHO(2)=  100.500       N(2)  =     4000

 ion  position               nearest neighbor table
   1  0.000  0.000  0.000-   3 2.47   3 2.47   3 2.47   2 2.47   3 2.47   2 2.47   2 2.47   2 2.47
                             4 2.86   4 2.86   4 2.86   4 2.86   4 2.86   4 2.86
   2  0.250  0.250  0.250-   1 2.47   1 2.47   1 2.47   1 2.47   4 2.47   4 2.47   4 2.47   4 2.47
                             3 2.86   3 2.86   3 2.86   3 2.86   3 2.86   3 2.86
   3  0.750  0.750  0.750-   4 2.47   4 2.47   4 2.47   1 2.47   4 2.47   1 2.47   1 2.47   1 2.47
                             2 2.86   2 2.86   2 2.86   2 2.86   2 2.86   2 2.86
   4  0.500  0.500  0.500-   2 2.47   2 2.47   2 2.47   2 2.47   3 2.47   3 2.47   3 2.47   3 2.47
                             1 2.86   1 2.86   1 2.86   1 2.86   1 2.86   1 2.86

  LATTYP: Found a face centered cubic cell.
 ALAT       =     5.7156918263

  Lattice vectors:

 A1 = (   0.0000000000,   2.8578459131,   2.8578459131)
 A2 = (   2.8578459131,   0.0000000000,   2.8578459131)
 A3 = (   2.8578459131,   2.8578459131,   0.0000000000)

Analysis of symmetry for initial positions (statically):
 Subroutine PRICEL returns:
 Original cell was already a primitive cell.

 Routine SETGRP: Setting up the symmetry group for a
 face centered cubic supercell.

 Subroutine GETGRP returns: Found 24 space group operations
 (whereof 24 operations were pure point group operations)
 out of a pool of 48 trial point group operations.

The static configuration has the point symmetry T_d .

Analysis of symmetry for dynamics (positions and initial velocities):
 Subroutine PRICEL returns:
 Original cell was already a primitive cell.

[...]

The dynamic configuration has the point symmetry T_d .

Analysis of structural, dynamic, and magnetic symmetry:
 Subroutine PRICEL returns:
 Original cell was already a primitive cell.

 Routine SETGRP: Setting up the symmetry group for a
 face centered cubic supercell.

 Subroutine GETGRP returns: Found 24 space group operations
 (whereof 24 operations were pure point group operations)
 out of a pool of 48 trial point group operations.

The magnetic configuration has the point symmetry T_d .

 Subroutine INISYM returns: Found 24 space group operations
 (whereof 24 operations are pure point group operations),
 and found     1 'primitive' translations

 KPOINTS: Automatic Mesh # Generates Automatically

Automatic generation of k-mesh.
Space group operators:
 irot       det(A)        alpha          n_x          n_y          n_z        tau_x        tau_y        tau_z
    1     1.000000     0.000001     1.000000     0.000000     0.000000     0.000000     0.000000     0.000000
    2     1.000000   120.000000    -0.577350    -0.577350    -0.577350     0.000000     0.000000     0.000000
    3     1.000000   120.000000     0.577350     0.577350     0.577350     0.000000     0.000000     0.000000
    4    -1.000000    90.000000     0.000000     0.000000    -1.000000     0.000000     0.000000     0.000000
    5    -1.000000   180.000000     0.000000     0.707107     0.707107     0.000000     0.000000     0.000000
    6    -1.000000    90.000000     0.000000     1.000000     0.000000     0.000000     0.000000     0.000000
    7     1.000000   180.000000     0.000000     0.000000     1.000000     0.000000     0.000000     0.000000
    8     1.000000   120.000000    -0.577350     0.577350     0.577350     0.000000     0.000000     0.000000
    9     1.000000   120.000000    -0.577350     0.577350    -0.577350     0.000000     0.000000     0.000000
   10    -1.000000    90.000000     0.000000     0.000000     1.000000     0.000000     0.000000     0.000000
   11    -1.000000    90.000000    -1.000000     0.000000     0.000000     0.000000     0.000000     0.000000
   12    -1.000000   180.000000     0.707107     0.000000     0.707107     0.000000     0.000000     0.000000
   13     1.000000   120.000000     0.577350    -0.577350     0.577350     0.000000     0.000000     0.000000
   14     1.000000   120.000000    -0.577350    -0.577350     0.577350     0.000000     0.000000     0.000000
   15     1.000000   180.000000     1.000000     0.000000     0.000000     0.000000     0.000000     0.000000
   16    -1.000000    90.000000     0.000000    -1.000000     0.000000     0.000000     0.000000     0.000000
   17    -1.000000   180.000000     0.707107     0.707107     0.000000     0.000000     0.000000     0.000000
   18    -1.000000    90.000000     1.000000     0.000000     0.000000     0.000000     0.000000     0.000000
   19     1.000000   120.000000     0.577350    -0.577350    -0.577350     0.000000     0.000000     0.000000
   20     1.000000   180.000000     0.000000     1.000000     0.000000     0.000000     0.000000     0.000000
   21     1.000000   120.000000     0.577350     0.577350    -0.577350     0.000000     0.000000     0.000000
   22    -1.000000   180.000000     0.000000    -0.707107     0.707107     0.000000     0.000000     0.000000
   23    -1.000000   180.000000     0.707107    -0.707107     0.000000     0.000000     0.000000     0.000000
   24    -1.000000   180.000000     0.707107     0.000000    -0.707107     0.000000     0.000000     0.000000

 Subroutine IBZKPT returns following result:

 Found    120 irreducible k-points:

 Following reciprocal coordinates:
            Coordinates               Weight
  0.000000  0.000000  0.000000      1.000000
  0.066667  0.000000  0.000000      8.000000
  0.133333  0.000000  0.000000      8.000000
  0.200000  0.000000  0.000000      8.000000
  0.266667  0.000000  0.000000      8.000000
  0.333333  0.000000  0.000000      8.000000
  0.400000  0.000000  0.000000      8.000000
  0.466667  0.000000  0.000000      8.000000
  0.066667  0.066667  0.000000      6.000000
  0.133333  0.066667  0.000000     24.000000
  0.200000  0.066667  0.000000     24.000000
  0.266667  0.066667  0.000000     24.000000
  0.333333  0.066667  0.000000     24.000000
  0.400000  0.066667  0.000000     24.000000
  0.466667  0.066667  0.000000     24.000000
 -0.466667  0.066667  0.000000     24.000000
 -0.400000  0.066667  0.000000     24.000000
 -0.333333  0.066667  0.000000     24.000000
 -0.266667  0.066667  0.000000     24.000000
 -0.200000  0.066667  0.000000     24.000000
 -0.133333  0.066667  0.000000     24.000000
 -0.066667  0.066667  0.000000     12.000000
  0.133333  0.133333  0.000000      6.000000
  0.200000  0.133333  0.000000     24.000000
  0.266667  0.133333  0.000000     24.000000
  0.333333  0.133333  0.000000     24.000000
  0.400000  0.133333  0.000000     24.000000
  0.466667  0.133333  0.000000     24.000000
 -0.466667  0.133333  0.000000     24.000000
 -0.400000  0.133333  0.000000     24.000000
 -0.333333  0.133333  0.000000     24.000000
 -0.266667  0.133333  0.000000     24.000000
 -0.200000  0.133333  0.000000     24.000000
 -0.133333  0.133333  0.000000     12.000000
  0.200000  0.200000  0.000000      6.000000
  0.266667  0.200000  0.000000     24.000000
  0.333333  0.200000  0.000000     24.000000
  0.400000  0.200000  0.000000     24.000000
  0.466667  0.200000  0.000000     24.000000
 -0.466667  0.200000  0.000000     24.000000
 -0.400000  0.200000  0.000000     24.000000
 -0.333333  0.200000  0.000000     24.000000
 -0.266667  0.200000  0.000000     24.000000
 -0.200000  0.200000  0.000000     12.000000
  0.266667  0.266667  0.000000      6.000000
  0.333333  0.266667  0.000000     24.000000
  0.400000  0.266667  0.000000     24.000000
  0.466667  0.266667  0.000000     24.000000
 -0.466667  0.266667  0.000000     24.000000
 -0.400000  0.266667  0.000000     24.000000
 -0.333333  0.266667  0.000000     24.000000
 -0.266667  0.266667  0.000000     12.000000
  0.333333  0.333333  0.000000      6.000000
  0.400000  0.333333  0.000000     24.000000
  0.466667  0.333333  0.000000     24.000000
 -0.466667  0.333333  0.000000     24.000000
 -0.400000  0.333333  0.000000     24.000000
 -0.333333  0.333333  0.000000     12.000000
  0.400000  0.400000  0.000000      6.000000
  0.466667  0.400000  0.000000     24.000000
[...]
 -0.466667  0.333333  0.133333     48.000000
 -0.400000  0.333333  0.133333     48.000000
 -0.333333  0.333333  0.133333     48.000000
 -0.266667  0.333333  0.133333     48.000000
 -0.200000  0.333333  0.133333     24.000000
 -0.466667  0.400000  0.133333     24.000000
 -0.400000  0.400000  0.133333     48.000000
 -0.333333  0.400000  0.133333     48.000000
 -0.266667  0.400000  0.133333     24.000000
 -0.400000  0.466667  0.133333     24.000000
 -0.333333  0.466667  0.133333     24.000000
 -0.400000  0.400000  0.200000     24.000000
 -0.333333  0.400000  0.200000     48.000000
 -0.333333  0.466667  0.200000     24.000000
 -0.266667  0.466667  0.200000     24.000000

 Following cartesian coordinates:
            Coordinates               Weight
  0.000000  0.000000  0.000000      1.000000
 -0.064151  0.064151  0.064151      8.000000
 -0.128302  0.128302  0.128302      8.000000
 -0.192453  0.192453  0.192453      8.000000
 -0.256604  0.256604  0.256604      8.000000
 -0.320754  0.320754  0.320754      8.000000
 -0.384905  0.384905  0.384905      8.000000
 -0.449056  0.449056  0.449056      8.000000
  0.000000  0.000000  0.128302      6.000000
 -0.064151  0.064151  0.192453     24.000000
 -0.128302  0.128302  0.256604     24.000000
 -0.192453  0.192453  0.320754     24.000000
 -0.256604  0.256604  0.384905     24.000000
 -0.320754  0.320754  0.449056     24.000000
 -0.384905  0.384905  0.513207     24.000000
  0.513207 -0.513207 -0.384905     24.000000
  0.449056 -0.449056 -0.320754     24.000000
  0.384905 -0.384905 -0.256604     24.000000
  0.320754 -0.320754 -0.192453     24.000000
  0.256604 -0.256604 -0.128302     24.000000
  0.192453 -0.192453 -0.064151     24.000000
  0.128302 -0.128302  0.000000     12.000000
  0.000000  0.000000  0.256604      6.000000
 -0.064151  0.064151  0.320754     24.000000
 -0.128302  0.128302  0.384905     24.000000
 -0.192453  0.192453  0.449056     24.000000
 -0.256604  0.256604  0.513207     24.000000
[...]
   0.50000000  0.50000000  0.50000000

 position of ions in cartesian coordinates  (Angst):
   0.00000000  0.00000000  0.00000000
   1.42892296  1.42892296  1.42892296
   4.28676887  4.28676887  4.28676887
   2.85784591  2.85784591  2.85784591

 k-point  1 :   0.0000 0.0000 0.0000  plane waves:    1243
 k-point  2 :   0.0667 0.0000 0.0000  plane waves:    1212
 k-point  3 :   0.1333 0.0000 0.0000  plane waves:    1209
 k-point  4 :   0.2000 0.0000 0.0000  plane waves:    1191
 k-point  5 :   0.2667 0.0000 0.0000  plane waves:    1185
 k-point  6 :   0.3333 0.0000 0.0000  plane waves:    1176
 k-point  7 :   0.4000 0.0000 0.0000  plane waves:    1185
 k-point  8 :   0.4667 0.0000 0.0000  plane waves:    1182
 k-point  9 :   0.0667 0.0667 0.0000  plane waves:    1219
 k-point 10 :   0.1333 0.0667 0.0000  plane waves:    1208
 k-point 11 :   0.2000 0.0667 0.0000  plane waves:    1188
 k-point 12 :   0.2667 0.0667 0.0000  plane waves:    1197
 k-point 13 :   0.3333 0.0667 0.0000  plane waves:    1185
 k-point 14 :   0.4000 0.0667 0.0000  plane waves:    1180
 k-point 15 :   0.4667 0.0667 0.0000  plane waves:    1182
 k-point 16 :  -0.4667 0.0667 0.0000  plane waves:    1184
 k-point 17 :  -0.4000 0.0667 0.0000  plane waves:    1181
 k-point 18 :  -0.3333 0.0667 0.0000  plane waves:    1183
 k-point 19 :  -0.2667 0.0667 0.0000  plane waves:    1191
 k-point 20 :  -0.2000 0.0667 0.0000  plane waves:    1195
 k-point 21 :  -0.1333 0.0667 0.0000  plane waves:    1194
 k-point 22 :  -0.0667 0.0667 0.0000  plane waves:    1209
 k-point 23 :   0.1333 0.1333 0.0000  plane waves:    1195
 k-point 24 :   0.2000 0.1333 0.0000  plane waves:    1190
 k-point 25 :   0.2667 0.1333 0.0000  plane waves:    1194
 k-point 26 :   0.3333 0.1333 0.0000  plane waves:    1192
 k-point 27 :   0.4000 0.1333 0.0000  plane waves:    1184
 k-point 28 :   0.4667 0.1333 0.0000  plane waves:    1185
 k-point 29 :  -0.4667 0.1333 0.0000  plane waves:    1183
 k-point 30 :  -0.4000 0.1333 0.0000  plane waves:    1181
 k-point 31 :  -0.3333 0.1333 0.0000  plane waves:    1178
 k-point 32 :  -0.2667 0.1333 0.0000  plane waves:    1184
 k-point 33 :  -0.2000 0.1333 0.0000  plane waves:    1188
 k-point 34 :  -0.1333 0.1333 0.0000  plane waves:    1187
 k-point 35 :   0.2000 0.2000 0.0000  plane waves:    1191
 k-point 36 :   0.2667 0.2000 0.0000  plane waves:    1195
 k-point 37 :   0.3333 0.2000 0.0000  plane waves:    1193
 k-point 38 :   0.4000 0.2000 0.0000  plane waves:    1189
 k-point 39 :   0.4667 0.2000 0.0000  plane waves:    1186
 k-point 40 :  -0.4667 0.2000 0.0000  plane waves:    1187
 k-point 41 :  -0.4000 0.2000 0.0000  plane waves:    1176
 k-point 42 :  -0.3333 0.2000 0.0000  plane waves:    1179
 k-point 43 :  -0.2667 0.2000 0.0000  plane waves:    1182
 k-point 44 :  -0.2000 0.2000 0.0000  plane waves:    1187
 k-point 45 :   0.2667 0.2667 0.0000  plane waves:    1190
 k-point 46 :   0.3333 0.2667 0.0000  plane waves:    1189
 k-point 47 :   0.4000 0.2667 0.0000  plane waves:    1190
 k-point 48 :   0.4667 0.2667 0.0000  plane waves:    1190
 k-point 49 :  -0.4667 0.2667 0.0000  plane waves:    1180
 k-point 50 :  -0.4000 0.2667 0.0000  plane waves:    1176
 k-point 51 :  -0.3333 0.2667 0.0000  plane waves:    1183
 k-point 52 :  -0.2667 0.2667 0.0000  plane waves:    1183
 k-point 53 :   0.3333 0.3333 0.0000  plane waves:    1186
 k-point 54 :   0.4000 0.3333 0.0000  plane waves:    1190
 k-point 55 :   0.4667 0.3333 0.0000  plane waves:    1188
 k-point 56 :  -0.4667 0.3333 0.0000  plane waves:    1183
 k-point 57 :  -0.4000 0.3333 0.0000  plane waves:    1178
 k-point 58 :  -0.3333 0.3333 0.0000  plane waves:    1182
 k-point 59 :   0.4000 0.4000 0.0000  plane waves:    1190
 k-point 60 :   0.4667 0.4000 0.0000  plane waves:    1186
[...]
 k-point 85 :  -0.4000 0.2667 0.0667  plane waves:    1179
 k-point 86 :  -0.3333 0.2667 0.0667  plane waves:    1179
 k-point 87 :  -0.2667 0.2667 0.0667  plane waves:    1180
 k-point 88 :  -0.2000 0.2667 0.0667  plane waves:    1186
 k-point 89 :   0.4000 0.3333 0.0667  plane waves:    1195
 k-point 90 :   0.4667 0.3333 0.0667  plane waves:    1192
 k-point 91 :  -0.4667 0.3333 0.0667  plane waves:    1192
 k-point 92 :  -0.4000 0.3333 0.0667  plane waves:    1177
 k-point 93 :  -0.3333 0.3333 0.0667  plane waves:    1174
 k-point 94 :  -0.2667 0.3333 0.0667  plane waves:    1180
 k-point 95 :   0.4667 0.4000 0.0667  plane waves:    1189
 k-point 96 :  -0.4667 0.4000 0.0667  plane waves:    1183
 k-point 97 :  -0.4000 0.4000 0.0667  plane waves:    1176
 k-point 98 :  -0.3333 0.4000 0.0667  plane waves:    1177
 k-point 99 :  -0.4667 0.4667 0.0667  plane waves:    1184
 k-point ** :  -0.4000 0.4667 0.0667  plane waves:    1173
 k-point ** :   0.4000 0.2667 0.1333  plane waves:    1190
 k-point ** :   0.4667 0.2667 0.1333  plane waves:    1183
 k-point ** :  -0.4667 0.2667 0.1333  plane waves:    1183
 k-point ** :  -0.4000 0.2667 0.1333  plane waves:    1184
 k-point ** :   0.4667 0.3333 0.1333  plane waves:    1188
 k-point ** :  -0.4667 0.3333 0.1333  plane waves:    1191
 k-point ** :  -0.4000 0.3333 0.1333  plane waves:    1189
 k-point ** :  -0.3333 0.3333 0.1333  plane waves:    1181
 k-point ** :  -0.2667 0.3333 0.1333  plane waves:    1184
 k-point ** :  -0.2000 0.3333 0.1333  plane waves:    1182
 k-point ** :  -0.4667 0.4000 0.1333  plane waves:    1185
 k-point ** :  -0.4000 0.4000 0.1333  plane waves:    1187
 k-point ** :  -0.3333 0.4000 0.1333  plane waves:    1179
 k-point ** :  -0.2667 0.4000 0.1333  plane waves:    1185
 k-point ** :  -0.4000 0.4667 0.1333  plane waves:    1181
 k-point ** :  -0.3333 0.4667 0.1333  plane waves:    1183
 k-point ** :  -0.4000 0.4000 0.2000  plane waves:    1183
 k-point ** :  -0.3333 0.4000 0.2000  plane waves:    1186
 k-point ** :  -0.3333 0.4667 0.2000  plane waves:    1180
 k-point ** :  -0.2667 0.4667 0.2000  plane waves:    1184

 maximum and minimum number of plane-waves per node :      1243     1162

 maximum number of plane-waves:      1243
 maximum index in each direction:
   IXMAX=    7   IYMAX=    7   IZMAX=    7
   IXMIN=   -7   IYMIN=   -7   IZMIN=   -7

 NGX is ok and might be reduce to  30
 NGY is ok and might be reduce to  30
 NGZ is ok and might be reduce to  30

 serial   3D FFT for wavefunctions
 parallel 3D FFT for charge:
    minimum data exchange during FFTs selected (reduces bandwidth)

 Broyden mixing: mesh for mixing (old mesh)
   NGX = 15   NGY = 15   NGZ = 15
  (NGX  = 60   NGY  = 60   NGZ  = 60)
  gives a total of   3375 points

 initial charge density was supplied:
 charge density of overlapping atoms calculated
 number of electron      45.0000000 magnetization      -0.5000000
 keeping initial charge density in first step

 Maximum index for augmentation-charges        46447 (set IRDMAX)

 First call to EWALD:  gamma=   0.492
 Maximum number of real-space cells 3x 3x 3
 Maximum number of reciprocal cells 3x 3x 3

 FEWALD executed in parallel

----------------------------------------- Iteration    1(   1)  ---------------------------------------

 eigenvalue-minimisations  : 13944
 total energy-change (2. order) : 0.5152364E+03  (-0.2521017E+04)
 number of electron      45.0000000 magnetization      -0.5000000
 augmentation part       45.0000000 magnetization      -0.5000000

 Free energy of the ion-electron system (eV)
  alpha Z        PSCENC =       310.87778216
  Ewald energy   TEWEN  =     -4888.46704633
  -Hartree energ DENC   =     -1734.48550259
  -exchange      EXHF   =         0.00000000
  -V(xc)+E(xc)   XCENC  =       200.49687115
  PAW double counting   =      5439.98770429    -5609.87680171
  entropy T*S    EENTRO =        -0.00219958
  eigenvalues    EBANDS =       118.58193176
  atomic energy  EATOM  =      6678.12361163
  Solvation  Ediel_sol  =         0.00000000
  free energy    TOTEN  =       515.23635079 eV

  energy without entropy =      515.23855037  energy(sigma->0) =      515.23745058

[...]

 eigenvalue-minimisations  : 13460
 total energy-change (2. order) :-0.5125163E+03  (-0.4999906E+03)
 number of electron      45.0000000 magnetization      -0.5000000
 augmentation part       45.0000000 magnetization      -0.5000000

[...]

 Broyden mixing:
  rms(total) = 0.21511E+01    rms(broyden)= 0.21510E+01
  rms(prec ) = 0.41527E+01
  weight for this iteration     100.00

[...]

 eigenvalues of (default mixing * dielectric matrix)
  average eigenvalue GAMMA=   0.5810
  0.5810

[...]

 Broyden mixing:
  rms(total) = 0.16323E-03    rms(broyden)= 0.14723E-03
  rms(prec ) = 0.18901E-03
  weight for this iteration     100.00

[...]

 eigenvalue-minimisations  : 13089
 total energy-change (2. order) :-0.1683275E-06  (-0.1217264E-06)
 number of electron      45.0000000 magnetization       3.0003898
 augmentation part       22.3506602 magnetization       2.1121328

 Broyden mixing:
  rms(total) = 0.11110E-03    rms(broyden)= 0.85842E-04
  rms(prec ) = 0.10902E-03
  weight for this iteration     100.00
  WARNING: grid for Broyden might be to small

 eigenvalues of (default mixing * dielectric matrix)
  average eigenvalue GAMMA=   1.2798
  5.0390  2.8260  2.3485  2.0541  1.6062  0.1152  0.2071  0.9561  0.9561  0.9188
  0.8312  0.7892  0.6551  0.6551  0.6212  0.6212  0.5558

[...]

----------------------------------------- Iteration    1(  24)  ---------------------------------------

 eigenvalue-minimisations  :  8781
 total energy-change (2. order) : 0.2303386E-07  (-0.6624890E-08)
 number of electron      45.0000000 magnetization       3.0003898
 augmentation part       22.3506602 magnetization       2.1121328

 Free energy of the ion-electron system (eV)
  alpha Z        PSCENC =       310.87778216
  Ewald energy   TEWEN  =     -4888.46704633
  -Hartree energ DENC   =     -1650.17693724
  -exchange      EXHF   =         0.00000000
  -V(xc)+E(xc)   XCENC  =       197.09819039
  PAW double counting   =      6193.35183698    -6367.87166644
  entropy T*S    EENTRO =        -0.00441189
  eigenvalues    EBANDS =      -504.05727167
  atomic energy  EATOM  =      6678.12361163
  Solvation  Ediel_sol  =         0.00000000
  free energy    TOTEN  =       -31.12591240 eV

  energy without entropy =      -31.12150051  energy(sigma->0) =      -31.12370646

 average (electrostatic) potential at core
  the test charge radii are     0.9577  0.9500  1.0621
  (the norm of the test charge is              1.0000)
       1 -63.9829       2 -63.9420       3 -72.5991       4 -44.9428

 E-fermi :  10.8399     XC(G=0): -13.3657     alpha+bet :-17.8264

 spin component 1

 k-point     1 :       0.0000    0.0000    0.0000
  band No.  band energies     occupation
      1     -42.5942      1.00000
      2     -42.5942      1.00000
      3     -42.5942      1.00000
      4     -38.6774      1.00000
      5     -38.6774      1.00000
      6     -38.6774      1.00000
      7     -36.8405      1.00000
      8     -36.8405      1.00000
      9     -36.8405      1.00000
     10      -3.2921      1.00000
     11       5.7544      1.00000
     12       5.7544      1.00000
     13       5.7544      1.00000
     14       6.4828      1.00000
     15       6.4828      1.00000
     16       7.8243      1.00000
     17       7.8243      1.00000
     18       7.8243      1.00000
     19      10.0071      1.00000
     20      10.0071      1.00000
     21      10.6309      1.00000
     22      10.6309      1.00000
     23      10.6309      1.00000
     24      10.7285      0.99919
     25      11.3115      0.00000
     26      11.3115      0.00000
     27      13.5994      0.00000
     28      13.5994      0.00000

[...]

 spin component 2

[...]

 k-point   120 :      -0.2667    0.4667    0.2000
  band No.  band energies     occupation
      1     -41.6411      1.00000
      2     -41.6397      1.00000
      3     -41.6380      1.00000
      4     -37.5217      1.00000
      5     -37.5204      1.00000
      6     -37.5075      1.00000
      7     -35.7530      1.00000
      8     -35.7419      1.00000
      9     -35.7380      1.00000
     10      -1.5312      1.00000
     11       4.2702      1.00000
     12       4.4913      1.00000
     13       5.6743      1.00000
     14       7.3809      1.00000
     15       8.3954      1.00000
     16       8.5748      1.00000
     17       9.0302      1.00000
     18       9.1267      1.00000
     19       9.4468      1.00000
     20       9.6016      1.00000
     21      10.0829      1.00000
     22      11.4300      0.00000
     23      11.5800      0.00000
     24      11.6159      0.00000
     25      11.8264      0.00000
     26      11.9715      0.00000
     27      12.1003      0.00000
     28      12.4532      0.00000

 soft charge-density along one line, spin component           1
         0         1         2         3         4         5         6         7         8         9
 total charge-density along one line

 soft charge-density along one line, spin component           2
         0         1         2         3         4         5         6         7         8         9
 total charge-density along one line

------------------------ aborting loop because EDIFF is reached ----------------------------------------

 total charge

# of ion     s       p       d       tot
  1        0.353   6.322   5.149  11.824
  2        0.313   6.329   5.315  11.956
  3        0.314   6.362   6.333  13.009
  4        1.150   1.514   0.154   2.818
tot        2.130  20.527  16.951  39.608

 magnetization (x)

[...]

  FORCE on cell =-STRESS in cart. coord.  units (eV):
  Direction    XX          YY          ZZ          XY          YZ          ZX
  Alpha Z   310.87778   310.87778   310.87778
  Ewald   -1629.49034 -1629.49034 -1629.49034    -0.00000    -0.00000     0.00000
  Hartree   550.05927   550.05927   550.05927     0.00000     0.00000     0.00000
  E(xc)    -265.70686  -265.70686  -265.70686     0.00001     0.00001     0.00001
  Local     295.78234   295.78234   295.78234     0.00022     0.00022     0.00022
  n-local   -72.23204   -72.10432   -72.25974    -1.95503     1.77612    -1.73436
  augment   334.44360   334.44360   334.44359    -0.00019    -0.00019    -0.00019
  Kinetic   476.93721   477.52281   474.21367    -1.84841     1.22842    -1.23192
  Fock        0.00000     0.00000     0.00000     0.00000     0.00000     0.00000
  Total      -0.00835    -0.00835    -0.00835     0.00000    -0.00000    -0.00000
  in kB      -0.28659    -0.28659    -0.28659     0.00000    -0.00000    -0.00000

 VOLUME and BASIS-vectors are now :
  energy-cutoff  :      500.00
  volume of cell :       46.68
      direct lattice vectors                 reciprocal lattice vectors
     0.000000000  2.857845913  2.857845913    -0.174956948  0.174956948  0.174956948
     2.857845913  0.000000000  2.857845913     0.174956948 -0.174956948  0.174956948
     2.857845913  2.857845913  0.000000000     0.174956948  0.174956948 -0.174956948

  length of vectors
     4.041604450  4.041604450  4.041604450     0.303034324  0.303034324  0.303034324

 FORCES acting on ions
    electron-ion (+dipol)            ewald-force                    non-local-force                 convergence-correction
   0.405E-07 0.405E-07 0.500E-07   -.161E-13 0.105E-13 0.428E-13   0.867E-18 -.867E-18 0.867E-18   0.113E-08 0.113E-08 0.113E-08
   -.349E-06 -.349E-06 -.407E-06   0.100E-13 -.214E-13 -.231E-13   -.694E-17 0.694E-17 0.000E+00   -.172E-09 -.172E-09 -.172E-09
   0.533E-07 0.533E-07 0.132E-06   -.338E-14 0.197E-13 -.348E-13   0.555E-16 0.555E-16 0.694E-16   -.122E-08 -.122E-08 -.122E-08
   -.444E-07 -.444E-07 -.154E-07   0.985E-14 -.112E-13 0.142E-13   0.694E-17 0.867E-17 0.434E-17   0.399E-11 0.399E-11 0.399E-11
   -.300E-06 -.300E-06 -.240E-06   0.389E-15 -.236E-14 -.904E-15   0.564E-16 0.703E-16 0.746E-16   -.253E-09 -.252E-09 -.252E-09

 POSITION                                       TOTAL-FORCE (eV/Angst)
      0.00000      0.00000      0.00000        -0.000000     -0.000000     -0.000000
      1.42892      1.42892      1.42892         0.000000     -0.000000      0.000000
      4.28677      4.28677      4.28677         0.000000      0.000000      0.000000
      2.85785      2.85785      2.85785        -0.000000     -0.000000     -0.000000
    total drift:                               -0.000000     -0.000000     -0.000000

  FREE ENERGIE OF THE ION-ELECTRON SYSTEM (eV)
  free  energy   TOTEN  =       -31.12591240 eV

  energy  without entropy=      -31.12150051  energy(sigma->0) =      -31.12370646

 total charge

[...]

 magnetization (x)

# of ion     s       p       d       tot
  1        0.019   0.022   2.699   2.740
  2       -0.007  -0.021  -0.635  -0.664
  3        0.004   0.000   0.835   0.840
  4        0.023   0.016  -0.006   0.033
tot        0.040   0.017   2.893   2.949