 vasp.5.4.1 05Feb16 (build Aug 30 2019 09:58:18) complex

 executed on           IFC91_ompi date 2021.10.03  23:30:54

 INCAR:
 POTCAR:    PAW_PBE Mn_pv 02Aug2007
 POTCAR:    PAW_PBE V_pv 07Sep2000
 POTCAR:    PAW_PBE As 22Sep2009
 POTCAR:    PAW_PBE Mn_pv 02Aug2007
   VRHFIN =Mn: 3p4s3d

   TITEL  = PAW_PBE Mn_pv 02Aug2007
   POMASS =   54.938; ZVAL   =   13.000    mass and valenz
   ENMAX  =  269.864; ENMIN  =  202.398 eV

 POTCAR:    PAW_PBE V_pv 07Sep2000
   VRHFIN =V: p6 d4 s1

   TITEL  = PAW_PBE V_pv 07Sep2000
   POMASS =   50.941; ZVAL   =   11.000    mass and valenz
   ENMAX  =  263.673; ENMIN  =  197.755 eV

 POTCAR:    PAW_PBE As 22Sep2009
   VRHFIN =As: s2p3

   TITEL  = PAW_PBE As 22Sep2009
   POMASS =   74.922; ZVAL   =    5.000    mass and valenz
   ENMAX  =  208.702; ENMIN  =  156.526 eV

  PAW_PBE Mn_pv 02Aug2007               :
  PAW_PBE V_pv 07Sep2000                :
  PAW_PBE As 22Sep2009                  :

 POSCAR: Mn V As
  positions in direct lattice
  velocities in cartesian coordinates
 exchange correlation table for  LEXCH =        8
   RHO(1)=    0.500       N(1)  =     2000
   RHO(2)=  100.500       N(2)  =     4000

 ion  position               nearest neighbor table
   1  0.750  0.750  0.750-   4 2.48   4 2.48   4 2.48   3 2.48   4 2.48   3 2.48   3 2.48   3 2.48
                             2 2.86   2 2.86   2 2.86   2 2.86   2 2.86   2 2.86
   2  0.250  0.250  0.250-   3 2.48   3 2.48   3 2.48   3 2.48   4 2.48   4 2.48   4 2.48   4 2.48
                             1 2.86   1 2.86   1 2.86   1 2.86   1 2.86   1 2.86
   3  0.000  0.000  0.000-   1 2.48   1 2.48   1 2.48   1 2.48   2 2.48   2 2.48   2 2.48   2 2.48
                             4 2.86   4 2.86   4 2.86   4 2.86   4 2.86   4 2.86
   4  0.500  0.500  0.500-   2 2.48   2 2.48   2 2.48   1 2.48   2 2.48   1 2.48   1 2.48   1 2.48
                             3 2.86   3 2.86   3 2.86   3 2.86   3 2.86   3 2.86

  LATTYP: Found a face centered cubic cell.
 ALAT       =     5.7277846790

  Lattice vectors:

 A1 = (   0.0000000000,   2.8638923395,   2.8638923395)
 A2 = (   2.8638923395,   0.0000000000,   2.8638923395)
 A3 = (   2.8638923395,   2.8638923395,   0.0000000000)

Analysis of symmetry for initial positions (statically):
 Subroutine PRICEL returns:
 Original cell was already a primitive cell.

 Routine SETGRP: Setting up the symmetry group for a
 face centered cubic supercell.

 Subroutine GETGRP returns: Found 48 space group operations
 (whereof 48 operations were pure point group operations)
 out of a pool of 48 trial point group operations.

The static configuration has the point symmetry O_h .

Analysis of symmetry for dynamics (positions and initial velocities):
 Subroutine PRICEL returns:
 Original cell was already a primitive cell.

[...]

The dynamic configuration has the point symmetry O_h .

Analysis of structural, dynamic, and magnetic symmetry:
 Subroutine PRICEL returns:
 Original cell was already a primitive cell.

 Routine SETGRP: Setting up the symmetry group for a
 face centered cubic supercell.

 Subroutine GETGRP returns: Found 24 space group operations
 (whereof 24 operations were pure point group operations)
 out of a pool of 48 trial point group operations.

The magnetic configuration has the point symmetry T_d .

 Subroutine INISYM returns: Found 24 space group operations
 (whereof 24 operations are pure point group operations),
 and found     1 'primitive' translations

 KPOINTS: Automatic Mesh # Generates Automatically

Automatic generation of k-mesh.
Space group operators:
 irot       det(A)        alpha          n_x          n_y          n_z        tau_x        tau_y        tau_z
    1     1.000000     0.000000     1.000000     0.000000     0.000000     0.000000     0.000000     0.000000
    2     1.000000   120.000000    -0.577350    -0.577350    -0.577350     0.000000     0.000000     0.000000
    3     1.000000   120.000000     0.577350     0.577350     0.577350     0.000000     0.000000     0.000000
    4    -1.000000    90.000000     0.000000     0.000000    -1.000000     0.000000     0.000000     0.000000
    5    -1.000000   180.000000     0.000000     0.707107     0.707107     0.000000     0.000000     0.000000
    6    -1.000000    90.000000     0.000000     1.000000     0.000000     0.000000     0.000000     0.000000
    7     1.000000   180.000000     0.000000     0.000000     1.000000     0.000000     0.000000     0.000000
    8     1.000000   120.000000    -0.577350     0.577350     0.577350     0.000000     0.000000     0.000000
    9     1.000000   120.000000    -0.577350     0.577350    -0.577350     0.000000     0.000000     0.000000
   10    -1.000000    90.000000     0.000000     0.000000     1.000000     0.000000     0.000000     0.000000
   11    -1.000000    90.000000    -1.000000     0.000000     0.000000     0.000000     0.000000     0.000000
   12    -1.000000   180.000000     0.707107     0.000000     0.707107     0.000000     0.000000     0.000000
   13     1.000000   120.000000     0.577350    -0.577350     0.577350     0.000000     0.000000     0.000000
   14     1.000000   120.000000    -0.577350    -0.577350     0.577350     0.000000     0.000000     0.000000
   15     1.000000   180.000000     1.000000     0.000000     0.000000     0.000000     0.000000     0.000000
   16    -1.000000    90.000000     0.000000    -1.000000     0.000000     0.000000     0.000000     0.000000
   17    -1.000000   180.000000     0.707107     0.707107     0.000000     0.000000     0.000000     0.000000
   18    -1.000000    90.000000     1.000000     0.000000     0.000000     0.000000     0.000000     0.000000
   19     1.000000   120.000000     0.577350    -0.577350    -0.577350     0.000000     0.000000     0.000000
   20     1.000000   180.000000     0.000000     1.000000     0.000000     0.000000     0.000000     0.000000
   21     1.000000   120.000000     0.577350     0.577350    -0.577350     0.000000     0.000000     0.000000
   22    -1.000000   180.000000     0.000000    -0.707107     0.707107     0.000000     0.000000     0.000000
   23    -1.000000   180.000000     0.707107    -0.707107     0.000000     0.000000     0.000000     0.000000
   24    -1.000000   180.000000     0.707107     0.000000    -0.707107     0.000000     0.000000     0.000000

 Subroutine IBZKPT returns following result:

 Found    120 irreducible k-points:

 Following reciprocal coordinates:
            Coordinates               Weight
  0.000000  0.000000  0.000000      1.000000
  0.066667  0.000000  0.000000      8.000000
  0.133333  0.000000  0.000000      8.000000
  0.200000  0.000000  0.000000      8.000000
  0.266667  0.000000  0.000000      8.000000
  0.333333  0.000000  0.000000      8.000000
  0.400000  0.000000  0.000000      8.000000
  0.466667  0.000000  0.000000      8.000000
  0.066667  0.066667  0.000000      6.000000
  0.133333  0.066667  0.000000     24.000000
  0.200000  0.066667  0.000000     24.000000
  0.266667  0.066667  0.000000     24.000000
  0.333333  0.066667  0.000000     24.000000
  0.400000  0.066667  0.000000     24.000000
  0.466667  0.066667  0.000000     24.000000
 -0.466667  0.066667  0.000000     24.000000
 -0.400000  0.066667  0.000000     24.000000
 -0.333333  0.066667  0.000000     24.000000
 -0.266667  0.066667  0.000000     24.000000
 -0.200000  0.066667  0.000000     24.000000
 -0.133333  0.066667  0.000000     24.000000
 -0.066667  0.066667  0.000000     12.000000
  0.133333  0.133333  0.000000      6.000000
  0.200000  0.133333  0.000000     24.000000
  0.266667  0.133333  0.000000     24.000000
  0.333333  0.133333  0.000000     24.000000
  0.400000  0.133333  0.000000     24.000000
  0.466667  0.133333  0.000000     24.000000
 -0.466667  0.133333  0.000000     24.000000
 -0.400000  0.133333  0.000000     24.000000
 -0.333333  0.133333  0.000000     24.000000
 -0.266667  0.133333  0.000000     24.000000
 -0.200000  0.133333  0.000000     24.000000
 -0.133333  0.133333  0.000000     12.000000
  0.200000  0.200000  0.000000      6.000000
  0.266667  0.200000  0.000000     24.000000
  0.333333  0.200000  0.000000     24.000000
  0.400000  0.200000  0.000000     24.000000
  0.466667  0.200000  0.000000     24.000000
 -0.466667  0.200000  0.000000     24.000000
 -0.400000  0.200000  0.000000     24.000000
 -0.333333  0.200000  0.000000     24.000000
 -0.266667  0.200000  0.000000     24.000000
 -0.200000  0.200000  0.000000     12.000000
  0.266667  0.266667  0.000000      6.000000
  0.333333  0.266667  0.000000     24.000000
  0.400000  0.266667  0.000000     24.000000
  0.466667  0.266667  0.000000     24.000000
 -0.466667  0.266667  0.000000     24.000000
 -0.400000  0.266667  0.000000     24.000000
 -0.333333  0.266667  0.000000     24.000000
 -0.266667  0.266667  0.000000     12.000000
  0.333333  0.333333  0.000000      6.000000
  0.400000  0.333333  0.000000     24.000000
  0.466667  0.333333  0.000000     24.000000
 -0.466667  0.333333  0.000000     24.000000
 -0.400000  0.333333  0.000000     24.000000
 -0.333333  0.333333  0.000000     12.000000
  0.400000  0.400000  0.000000      6.000000
  0.466667  0.400000  0.000000     24.000000
[...]
 -0.466667  0.333333  0.133333     48.000000
 -0.400000  0.333333  0.133333     48.000000
 -0.333333  0.333333  0.133333     48.000000
 -0.266667  0.333333  0.133333     48.000000
 -0.200000  0.333333  0.133333     24.000000
 -0.466667  0.400000  0.133333     24.000000
 -0.400000  0.400000  0.133333     48.000000
 -0.333333  0.400000  0.133333     48.000000
 -0.266667  0.400000  0.133333     24.000000
 -0.400000  0.466667  0.133333     24.000000
 -0.333333  0.466667  0.133333     24.000000
 -0.400000  0.400000  0.200000     24.000000
 -0.333333  0.400000  0.200000     48.000000
 -0.333333  0.466667  0.200000     24.000000
 -0.266667  0.466667  0.200000     24.000000

 Following cartesian coordinates:
            Coordinates               Weight
  0.000000  0.000000  0.000000      1.000000
 -0.064015  0.064015  0.064015      8.000000
 -0.128031  0.128031  0.128031      8.000000
 -0.192046  0.192046  0.192046      8.000000
 -0.256062  0.256062  0.256062      8.000000
 -0.320077  0.320077  0.320077      8.000000
 -0.384093  0.384093  0.384093      8.000000
 -0.448108  0.448108  0.448108      8.000000
  0.000000  0.000000  0.128031      6.000000
 -0.064015  0.064015  0.192046     24.000000
 -0.128031  0.128031  0.256062     24.000000
 -0.192046  0.192046  0.320077     24.000000
 -0.256062  0.256062  0.384093     24.000000
 -0.320077  0.320077  0.448108     24.000000
 -0.384093  0.384093  0.512124     24.000000
  0.512124 -0.512124 -0.384093     24.000000
  0.448108 -0.448108 -0.320077     24.000000
  0.384093 -0.384093 -0.256062     24.000000
  0.320077 -0.320077 -0.192046     24.000000
  0.256062 -0.256062 -0.128031     24.000000
  0.192046 -0.192046 -0.064015     24.000000
  0.128031 -0.128031  0.000000     12.000000
  0.000000  0.000000  0.256062      6.000000
 -0.064015  0.064015  0.320077     24.000000
 -0.128031  0.128031  0.384093     24.000000
 -0.192046  0.192046  0.448108     24.000000
 -0.256062  0.256062  0.512124     24.000000
 -0.320077  0.320077  0.576139     24.000000
[...]
   0.00000000  0.00000000  0.00000000
   2.86389234  2.86389234  2.86389234

 k-point  1 :   0.0000 0.0000 0.0000  plane waves:    1243
 k-point  2 :   0.0667 0.0000 0.0000  plane waves:    1230
 k-point  3 :   0.1333 0.0000 0.0000  plane waves:    1209
 k-point  4 :   0.2000 0.0000 0.0000  plane waves:    1209
 k-point  5 :   0.2667 0.0000 0.0000  plane waves:    1203
 k-point  6 :   0.3333 0.0000 0.0000  plane waves:    1176
 k-point  7 :   0.4000 0.0000 0.0000  plane waves:    1185
 k-point  8 :   0.4667 0.0000 0.0000  plane waves:    1182
 k-point  9 :   0.0667 0.0667 0.0000  plane waves:    1227
 k-point 10 :   0.1333 0.0667 0.0000  plane waves:    1211
 k-point 11 :   0.2000 0.0667 0.0000  plane waves:    1198
 k-point 12 :   0.2667 0.0667 0.0000  plane waves:    1200
 k-point 13 :   0.3333 0.0667 0.0000  plane waves:    1193
 k-point 14 :   0.4000 0.0667 0.0000  plane waves:    1186
 k-point 15 :   0.4667 0.0667 0.0000  plane waves:    1186
 k-point 16 :  -0.4667 0.0667 0.0000  plane waves:    1189
 k-point 17 :  -0.4000 0.0667 0.0000  plane waves:    1187
 k-point 18 :  -0.3333 0.0667 0.0000  plane waves:    1192
 k-point 19 :  -0.2667 0.0667 0.0000  plane waves:    1193
 k-point 20 :  -0.2000 0.0667 0.0000  plane waves:    1206
 k-point 21 :  -0.1333 0.0667 0.0000  plane waves:    1202
 k-point 22 :  -0.0667 0.0667 0.0000  plane waves:    1213
 k-point 23 :   0.1333 0.1333 0.0000  plane waves:    1199
 k-point 24 :   0.2000 0.1333 0.0000  plane waves:    1198
 k-point 25 :   0.2667 0.1333 0.0000  plane waves:    1196
 k-point 26 :   0.3333 0.1333 0.0000  plane waves:    1198
 k-point 27 :   0.4000 0.1333 0.0000  plane waves:    1198
 k-point 28 :   0.4667 0.1333 0.0000  plane waves:    1194
 k-point 29 :  -0.4667 0.1333 0.0000  plane waves:    1193
 k-point 30 :  -0.4000 0.1333 0.0000  plane waves:    1187
 k-point 31 :  -0.3333 0.1333 0.0000  plane waves:    1190
 k-point 32 :  -0.2667 0.1333 0.0000  plane waves:    1193
 k-point 33 :  -0.2000 0.1333 0.0000  plane waves:    1203
 k-point 34 :  -0.1333 0.1333 0.0000  plane waves:    1197
 k-point 35 :   0.2000 0.2000 0.0000  plane waves:    1199
 k-point 36 :   0.2667 0.2000 0.0000  plane waves:    1207
 k-point 37 :   0.3333 0.2000 0.0000  plane waves:    1201
 k-point 38 :   0.4000 0.2000 0.0000  plane waves:    1189
 k-point 39 :   0.4667 0.2000 0.0000  plane waves:    1196
 k-point 40 :  -0.4667 0.2000 0.0000  plane waves:    1195
 k-point 41 :  -0.4000 0.2000 0.0000  plane waves:    1184
 k-point 42 :  -0.3333 0.2000 0.0000  plane waves:    1183
 k-point 43 :  -0.2667 0.2000 0.0000  plane waves:    1186
 k-point 44 :  -0.2000 0.2000 0.0000  plane waves:    1199
 k-point 45 :   0.2667 0.2667 0.0000  plane waves:    1198
 k-point 46 :   0.3333 0.2667 0.0000  plane waves:    1199
 k-point 47 :   0.4000 0.2667 0.0000  plane waves:    1200
 k-point 48 :   0.4667 0.2667 0.0000  plane waves:    1197
 k-point 49 :  -0.4667 0.2667 0.0000  plane waves:    1193
 k-point 50 :  -0.4000 0.2667 0.0000  plane waves:    1186
 k-point 51 :  -0.3333 0.2667 0.0000  plane waves:    1185
 k-point 52 :  -0.2667 0.2667 0.0000  plane waves:    1189
 k-point 53 :   0.3333 0.3333 0.0000  plane waves:    1218
 k-point 54 :   0.4000 0.3333 0.0000  plane waves:    1200
 k-point 55 :   0.4667 0.3333 0.0000  plane waves:    1195
 k-point 56 :  -0.4667 0.3333 0.0000  plane waves:    1189
 k-point 57 :  -0.4000 0.3333 0.0000  plane waves:    1184
 k-point 58 :  -0.3333 0.3333 0.0000  plane waves:    1196
 k-point 59 :   0.4000 0.4000 0.0000  plane waves:    1190
 k-point 60 :   0.4667 0.4000 0.0000  plane waves:    1194
[...]
 k-point 85 :  -0.4000 0.2667 0.0667  plane waves:    1188
 k-point 86 :  -0.3333 0.2667 0.0667  plane waves:    1187
 k-point 87 :  -0.2667 0.2667 0.0667  plane waves:    1188
 k-point 88 :  -0.2000 0.2667 0.0667  plane waves:    1195
 k-point 89 :   0.4000 0.3333 0.0667  plane waves:    1199
 k-point 90 :   0.4667 0.3333 0.0667  plane waves:    1197
 k-point 91 :  -0.4667 0.3333 0.0667  plane waves:    1193
 k-point 92 :  -0.4000 0.3333 0.0667  plane waves:    1183
 k-point 93 :  -0.3333 0.3333 0.0667  plane waves:    1181
 k-point 94 :  -0.2667 0.3333 0.0667  plane waves:    1184
 k-point 95 :   0.4667 0.4000 0.0667  plane waves:    1195
 k-point 96 :  -0.4667 0.4000 0.0667  plane waves:    1189
 k-point 97 :  -0.4000 0.4000 0.0667  plane waves:    1187
 k-point 98 :  -0.3333 0.4000 0.0667  plane waves:    1187
 k-point 99 :  -0.4667 0.4667 0.0667  plane waves:    1194
 k-point ** :  -0.4000 0.4667 0.0667  plane waves:    1186
 k-point ** :   0.4000 0.2667 0.1333  plane waves:    1198
 k-point ** :   0.4667 0.2667 0.1333  plane waves:    1192
 k-point ** :  -0.4667 0.2667 0.1333  plane waves:    1193
 k-point ** :  -0.4000 0.2667 0.1333  plane waves:    1188
 k-point ** :   0.4667 0.3333 0.1333  plane waves:    1196
 k-point ** :  -0.4667 0.3333 0.1333  plane waves:    1196
 k-point ** :  -0.4000 0.3333 0.1333  plane waves:    1197
 k-point ** :  -0.3333 0.3333 0.1333  plane waves:    1185
 k-point ** :  -0.2667 0.3333 0.1333  plane waves:    1194
 k-point ** :  -0.2000 0.3333 0.1333  plane waves:    1191
 k-point ** :  -0.4667 0.4000 0.1333  plane waves:    1193
 k-point ** :  -0.4000 0.4000 0.1333  plane waves:    1190
 k-point ** :  -0.3333 0.4000 0.1333  plane waves:    1186
 k-point ** :  -0.2667 0.4000 0.1333  plane waves:    1187
 k-point ** :  -0.4000 0.4667 0.1333  plane waves:    1187
 k-point ** :  -0.3333 0.4667 0.1333  plane waves:    1187
 k-point ** :  -0.4000 0.4000 0.2000  plane waves:    1197
 k-point ** :  -0.3333 0.4000 0.2000  plane waves:    1192
 k-point ** :  -0.3333 0.4667 0.2000  plane waves:    1189
 k-point ** :  -0.2667 0.4667 0.2000  plane waves:    1192

 maximum and minimum number of plane-waves per node :      1243     1176

 maximum number of plane-waves:      1243
 maximum index in each direction:
   IXMAX=    7   IYMAX=    7   IZMAX=    7
   IXMIN=   -7   IYMIN=   -7   IZMIN=   -7

 NGX is ok and might be reduce to  30
 NGY is ok and might be reduce to  30
 NGZ is ok and might be reduce to  30

 serial   3D FFT for wavefunctions
 parallel 3D FFT for charge:
    minimum data exchange during FFTs selected (reduces bandwidth)

 Broyden mixing: mesh for mixing (old mesh)
   NGX = 15   NGY = 15   NGZ = 15
  (NGX  = 60   NGY  = 60   NGZ  = 60)
  gives a total of   3375 points

 initial charge density was supplied:
 charge density of overlapping atoms calculated
 number of electron      42.0000000 magnetization      -0.5000000
 keeping initial charge density in first step

 Maximum index for augmentation-charges        46243 (set IRDMAX)

 First call to EWALD:  gamma=   0.491
 Maximum number of real-space cells 3x 3x 3
 Maximum number of reciprocal cells 3x 3x 3

 FEWALD executed in parallel

----------------------------------------- Iteration    1(   1)  ---------------------------------------

 eigenvalue-minimisations  : 14280
 total energy-change (2. order) : 0.4776970E+03  (-0.2300064E+04)
 number of electron      42.0000000 magnetization      -0.5000000
 augmentation part       42.0000000 magnetization      -0.5000000

 Free energy of the ion-electron system (eV)
  alpha Z        PSCENC =       320.20819035
  Ewald energy   TEWEN  =     -4241.76706804
  -Hartree energ DENC   =     -1360.67770205
  -exchange      EXHF   =         0.00000000
  -V(xc)+E(xc)   XCENC  =       158.01032615
  PAW double counting   =      4526.91047494    -4582.83274487
  entropy T*S    EENTRO =        -0.00213454
  eigenvalues    EBANDS =       115.52626140
  atomic energy  EATOM  =      5542.32138669
  Solvation  Ediel_sol  =         0.00000000
  free energy    TOTEN  =       477.69699003 eV

  energy without entropy =      477.69912457  energy(sigma->0) =      477.69805730

[...]

 eigenvalue-minimisations  : 13448
 total energy-change (2. order) :-0.4838067E+03  (-0.4727034E+03)
 number of electron      42.0000000 magnetization      -0.5000000
 augmentation part       42.0000000 magnetization      -0.5000000

[...]

 Broyden mixing:
  rms(total) = 0.28662E+01    rms(broyden)= 0.28660E+01
  rms(prec ) = 0.43353E+01
  weight for this iteration     100.00

[...]

 eigenvalues of (default mixing * dielectric matrix)
  average eigenvalue GAMMA=   0.8677
  0.8677

[...]

 eigenvalue-minimisations  : 16608
 total energy-change (2. order) : 0.9958630E-06  (-0.5327187E-05)
 number of electron      42.0000000 magnetization       0.0002915
 augmentation part       18.5876827 magnetization       0.0013000

[...]

 Broyden mixing:
  rms(total) = 0.43073E-03    rms(broyden)= 0.42608E-03
  rms(prec ) = 0.65901E-03
  weight for this iteration     100.00

[...]

 Broyden mixing:
  rms(total) = 0.12474E-03    rms(broyden)= 0.10819E-03
  rms(prec ) = 0.13208E-03
  weight for this iteration     100.00
  WARNING: grid for Broyden might be to small

[...]

 Broyden mixing:
  rms(total) = 0.77180E-04    rms(broyden)= 0.47371E-04
  rms(prec ) = 0.82004E-04
  weight for this iteration     100.00
  WARNING: grid for Broyden might be to small

 eigenvalues of (default mixing * dielectric matrix)
  average eigenvalue GAMMA=   1.2078
  3.6818  2.6263  2.3789  1.4468  1.2808  1.0670  0.9536  0.9536  0.1568  0.1734
  0.7627  0.7627  0.6353  0.6353  0.6022

[...]

----------------------------------------- Iteration    1(  22)  ---------------------------------------

 eigenvalue-minimisations  :  8327
 total energy-change (2. order) :-0.2679917E-07  (-0.5981536E-08)
 number of electron      42.0000000 magnetization       0.0000303
 augmentation part       18.5872751 magnetization       0.0000605

 Free energy of the ion-electron system (eV)
  alpha Z        PSCENC =       320.20819035
  Ewald energy   TEWEN  =     -4241.76706804
  -Hartree energ DENC   =     -1281.16995150
  -exchange      EXHF   =         0.00000000
  -V(xc)+E(xc)   XCENC  =       153.77838745
  PAW double counting   =      5494.42810871    -5555.78654919
  entropy T*S    EENTRO =        -0.00187531
  eigenvalues    EBANDS =      -464.45733677
  atomic energy  EATOM  =      5542.32138669
  Solvation  Ediel_sol  =         0.00000000
  free energy    TOTEN  =       -32.44670761 eV

  energy without entropy =      -32.44483229  energy(sigma->0) =      -32.44576995

 average (electrostatic) potential at core
  the test charge radii are     0.9577  0.9339  1.0621
  (the norm of the test charge is              1.0000)
       1 -64.3169       2 -64.3169       3 -43.0987       4 -45.6154

 E-fermi :  10.2367     XC(G=0): -13.3688     alpha+bet :-17.7167

 spin component 1

 k-point     1 :       0.0000    0.0000    0.0000
  band No.  band energies     occupation
      1     -37.6113      1.00000
      2     -37.6113      1.00000
      3     -37.6113      1.00000
      4     -37.5319      1.00000
      5     -37.5319      1.00000
      6     -37.5319      1.00000
      7     -28.3128      1.00000
      8     -28.3128      1.00000
      9     -28.3128      1.00000
     10      -3.8347      1.00000
     11       5.2353      1.00000
     12       5.2353      1.00000
     13       5.2353      1.00000
     14       6.4283      1.00000
     15       6.4283      1.00000
     16       8.3106      1.00000
     17       8.3106      1.00000
     18       8.3106      1.00000
     19      10.4813      0.00000
     20      10.4813      0.00000
     21      10.4813      0.00000
     22      10.8399      0.00000
     23      11.1063      0.00000
     24      11.1063      0.00000
     25      11.5545      0.00000
     26      11.5545      0.00000
     27      13.1751      0.00000
     28      13.1751      0.00000

[...]

 spin component 2

[...]

 k-point   120 :      -0.2667    0.4667    0.2000
  band No.  band energies     occupation
      1     -37.6385      1.00000
      2     -37.6275      1.00000
      3     -37.5810      1.00000
      4     -37.5690      1.00000
      5     -37.5156      1.00000
      6     -37.5135      1.00000
      7     -28.3187      1.00000
      8     -28.3167      1.00000
      9     -28.3075      1.00000
     10      -2.2835      1.00000
     11       3.7580      1.00000
     12       3.9147      1.00000
     13       5.0393      1.00000
     14       6.9640      1.00000
     15       7.7673      1.00000
     16       7.8049      1.00000
     17       8.3077      1.00000
     18       8.8252      1.00000
     19       8.9078      1.00000
     20       9.2265      1.00000
     21       9.7533      1.00000
     22      10.7720      0.00000
     23      10.9297      0.00000
     24      10.9700      0.00000
     25      10.9933      0.00000
     26      11.3683      0.00000
     27      11.3705      0.00000
     28      12.1215      0.00000

 soft charge-density along one line, spin component           1
         0         1         2         3         4         5         6         7         8         9
 total charge-density along one line

 soft charge-density along one line, spin component           2
         0         1         2         3         4         5         6         7         8         9
 total charge-density along one line

------------------------ aborting loop because EDIFF is reached ----------------------------------------

 total charge

# of ion     s       p       d       tot
  1        0.315   6.342   5.379  12.037
  2        0.315   6.342   5.379  12.037
  3        0.337   6.270   3.116   9.723
  4        1.134   1.530   0.171   2.835
tot        2.101  20.485  14.046  36.632

 magnetization (x)

[...]

  FORCE on cell =-STRESS in cart. coord.  units (eV):
  Direction    XX          YY          ZZ          XY          YZ          ZX
  Alpha Z   320.20819   320.20819   320.20819
  Ewald   -1413.92351 -1413.92351 -1413.92351    -0.00000    -0.00000    -0.00000
  Hartree   427.05720   427.05720   427.05720     0.00000     0.00000     0.00000
  E(xc)    -235.95881  -235.95881  -235.95881     0.00001     0.00001     0.00001
  Local     308.05500   308.05500   308.05500     0.00012     0.00012     0.00012
  n-local  -118.18195  -117.91400  -116.16842    -1.71069     1.76779    -1.95921
  augment   227.61077   227.61077   227.61077    -0.00010    -0.00010    -0.00010
  Kinetic   486.01455   484.10770   483.00122    -3.12290     2.66841    -1.55096
  Fock        0.00000     0.00000     0.00000     0.00000     0.00000     0.00000
  Total       0.00189     0.00189     0.00189    -0.00000     0.00000    -0.00000
  in kB       0.06437     0.06437     0.06437    -0.00000     0.00000    -0.00000

 VOLUME and BASIS-vectors are now :
  energy-cutoff  :      500.00
  volume of cell :       46.98
      direct lattice vectors                 reciprocal lattice vectors
     0.000000000  2.863892340  2.863892340    -0.174587568  0.174587568  0.174587568
     2.863892340  0.000000000  2.863892340     0.174587568 -0.174587568  0.174587568
     2.863892340  2.863892340  0.000000000     0.174587568  0.174587568 -0.174587568

  length of vectors
     4.050155388  4.050155388  4.050155388     0.302394539  0.302394539  0.302394539

 FORCES acting on ions
    electron-ion (+dipol)            ewald-force                    non-local-force                 convergence-correction
   -.252E-06 -.252E-06 -.276E-06   0.407E-13 0.206E-13 0.582E-13   0.347E-17 0.694E-17 0.347E-17   -.189E-08 -.189E-08 -.189E-08
   0.252E-06 0.252E-06 0.276E-06   -.354E-13 -.948E-14 -.458E-13   -.208E-16 -.243E-16 -.243E-16   0.221E-08 0.221E-08 0.221E-08
   0.644E-12 0.664E-12 0.514E-12   -.569E-14 -.765E-14 -.809E-14   0.159E-21 0.926E-22 0.119E-21   -.513E-09 -.513E-09 -.513E-09
   0.178E-11 0.365E-12 -.804E-12   0.674E-15 -.402E-14 -.831E-14   -.376E-22 -.112E-22 -.331E-23   -.483E-10 -.483E-10 -.483E-10
   0.405E-11 -.227E-11 0.391E-12   0.284E-15 -.516E-15 -.399E-14   -.173E-16 -.173E-16 -.208E-16   -.244E-09 -.244E-09 -.244E-09

 POSITION                                       TOTAL-FORCE (eV/Angst)
      4.29584      4.29584      4.29584        -0.000000     -0.000000     -0.000000
      1.43195      1.43195      1.43195        -0.000000      0.000000     -0.000000
      0.00000      0.00000      0.00000         0.000000      0.000000      0.000000
      2.86389      2.86389      2.86389         0.000000      0.000000      0.000000
    total drift:                               -0.000000     -0.000000     -0.000000

  FREE ENERGIE OF THE ION-ELECTRON SYSTEM (eV)
  free  energy   TOTEN  =       -32.44670761 eV

  energy  without entropy=      -32.44483229  energy(sigma->0) =      -32.44576995

 total charge

[...]

 magnetization (x)

# of ion     s       p       d       tot
  1        0.000  -0.000   0.000   0.000
  2       -0.000  -0.000   0.000   0.000
  3       -0.000  -0.000  -0.000  -0.000
  4        0.000  -0.000  -0.000  -0.000
tot       -0.000  -0.000   0.000   0.000