 vasp.5.4.1 05Feb16 (build Aug 30 2019 09:58:18) complex

 executed on           IFC91_ompi date 2021.10.03  23:41:39

 INCAR:
 POTCAR:    PAW_PBE Mn_pv 02Aug2007
 POTCAR:    PAW_PBE V_pv 07Sep2000
 POTCAR:    PAW_PBE As 22Sep2009
 POTCAR:    PAW_PBE Mn_pv 02Aug2007
   VRHFIN =Mn: 3p4s3d

   TITEL  = PAW_PBE Mn_pv 02Aug2007
   POMASS =   54.938; ZVAL   =   13.000    mass and valenz
   ENMAX  =  269.864; ENMIN  =  202.398 eV

 POTCAR:    PAW_PBE V_pv 07Sep2000
   VRHFIN =V: p6 d4 s1

   TITEL  = PAW_PBE V_pv 07Sep2000
   POMASS =   50.941; ZVAL   =   11.000    mass and valenz
   ENMAX  =  263.673; ENMIN  =  197.755 eV

 POTCAR:    PAW_PBE As 22Sep2009
   VRHFIN =As: s2p3

   TITEL  = PAW_PBE As 22Sep2009
   POMASS =   74.922; ZVAL   =    5.000    mass and valenz
   ENMAX  =  208.702; ENMIN  =  156.526 eV

  PAW_PBE Mn_pv 02Aug2007               :
  PAW_PBE V_pv 07Sep2000                :
  PAW_PBE As 22Sep2009                  :

 POSCAR: Mn V As
  positions in direct lattice
  velocities in cartesian coordinates
 exchange correlation table for  LEXCH =        8
   RHO(1)=    0.500       N(1)  =     2000
   RHO(2)=  100.500       N(2)  =     4000

 ion  position               nearest neighbor table
   1  0.000  0.000  0.000-   3 2.55   3 2.55   3 2.55   2 2.55   2 2.55   2 2.55   3 2.55   2 2.55
                             4 2.94   4 2.94   4 2.94   4 2.94   4 2.94   4 2.94
   2  0.250  0.250  0.250-   1 2.55   1 2.55   1 2.55   4 2.55   4 2.55   4 2.55   4 2.55   1 2.55
                             3 2.94   3 2.94   3 2.94   3 2.94   3 2.94   3 2.94
   3  0.750  0.750  0.750-   4 2.55   4 2.55   4 2.55   1 2.55   1 2.55   1 2.55   4 2.55   1 2.55
                             2 2.94   2 2.94   2 2.94   2 2.94   2 2.94   2 2.94
   4  0.500  0.500  0.500-   2 2.55   2 2.55   2 2.55   3 2.55   3 2.55   3 2.55   3 2.55   2 2.55
                             1 2.94   1 2.94   1 2.94   1 2.94   1 2.94   1 2.94

  LATTYP: Found a face centered cubic cell.
 ALAT       =     5.8899856011

  Lattice vectors:

 A1 = (   0.0000000000,   2.9449928006,   2.9449928006)
 A2 = (   2.9449928006,   0.0000000000,   2.9449928006)
 A3 = (   2.9449928006,   2.9449928006,   0.0000000000)

Analysis of symmetry for initial positions (statically):
 Subroutine PRICEL returns:
 Original cell was already a primitive cell.

 Routine SETGRP: Setting up the symmetry group for a
 face centered cubic supercell.

 Subroutine GETGRP returns: Found 24 space group operations
 (whereof 24 operations were pure point group operations)
 out of a pool of 48 trial point group operations.

The static configuration has the point symmetry T_d .

Analysis of symmetry for dynamics (positions and initial velocities):
 Subroutine PRICEL returns:
 Original cell was already a primitive cell.

[...]

The dynamic configuration has the point symmetry T_d .

Analysis of structural, dynamic, and magnetic symmetry:
 Subroutine PRICEL returns:
 Original cell was already a primitive cell.

 Routine SETGRP: Setting up the symmetry group for a
 face centered cubic supercell.

 Subroutine GETGRP returns: Found 24 space group operations
 (whereof 24 operations were pure point group operations)
 out of a pool of 48 trial point group operations.

The magnetic configuration has the point symmetry T_d .

 Subroutine INISYM returns: Found 24 space group operations
 (whereof 24 operations are pure point group operations),
 and found     1 'primitive' translations

 KPOINTS: Automatic Mesh # Generates Automatically

Automatic generation of k-mesh.
Space group operators:
 irot       det(A)        alpha          n_x          n_y          n_z        tau_x        tau_y        tau_z
    1     1.000000     0.000000     1.000000     0.000000     0.000000     0.000000     0.000000     0.000000
    2     1.000000   120.000000    -0.577350    -0.577350    -0.577350     0.000000     0.000000     0.000000
    3     1.000000   120.000000     0.577350     0.577350     0.577350     0.000000     0.000000     0.000000
    4    -1.000000    90.000000     0.000000     0.000000    -1.000000     0.000000     0.000000     0.000000
    5    -1.000000   180.000000     0.000000     0.707107     0.707107     0.000000     0.000000     0.000000
    6    -1.000000    90.000000     0.000000     1.000000     0.000000     0.000000     0.000000     0.000000
    7     1.000000   180.000000     0.000000     0.000000     1.000000     0.000000     0.000000     0.000000
    8     1.000000   120.000000    -0.577350     0.577350     0.577350     0.000000     0.000000     0.000000
    9     1.000000   120.000000    -0.577350     0.577350    -0.577350     0.000000     0.000000     0.000000
   10    -1.000000    90.000000     0.000000     0.000000     1.000000     0.000000     0.000000     0.000000
   11    -1.000000    90.000000    -1.000000     0.000000     0.000000     0.000000     0.000000     0.000000
   12    -1.000000   180.000000     0.707107     0.000000     0.707107     0.000000     0.000000     0.000000
   13     1.000000   120.000000     0.577350    -0.577350     0.577350     0.000000     0.000000     0.000000
   14     1.000000   120.000000    -0.577350    -0.577350     0.577350     0.000000     0.000000     0.000000
   15     1.000000   180.000000     1.000000     0.000000     0.000000     0.000000     0.000000     0.000000
   16    -1.000000    90.000000     0.000000    -1.000000     0.000000     0.000000     0.000000     0.000000
   17    -1.000000   180.000000     0.707107     0.707107     0.000000     0.000000     0.000000     0.000000
   18    -1.000000    90.000000     1.000000     0.000000     0.000000     0.000000     0.000000     0.000000
   19     1.000000   120.000000     0.577350    -0.577350    -0.577350     0.000000     0.000000     0.000000
   20     1.000000   180.000000     0.000000     1.000000     0.000000     0.000000     0.000000     0.000000
   21     1.000000   120.000000     0.577350     0.577350    -0.577350     0.000000     0.000000     0.000000
   22    -1.000000   180.000000     0.000000    -0.707107     0.707107     0.000000     0.000000     0.000000
   23    -1.000000   180.000000     0.707107    -0.707107     0.000000     0.000000     0.000000     0.000000
   24    -1.000000   180.000000     0.707107     0.000000    -0.707107     0.000000     0.000000     0.000000

 Subroutine IBZKPT returns following result:

 Found    120 irreducible k-points:

 Following reciprocal coordinates:
            Coordinates               Weight
  0.000000  0.000000  0.000000      1.000000
  0.066667  0.000000  0.000000      8.000000
  0.133333  0.000000  0.000000      8.000000
  0.200000  0.000000  0.000000      8.000000
  0.266667  0.000000  0.000000      8.000000
  0.333333  0.000000  0.000000      8.000000
  0.400000  0.000000  0.000000      8.000000
  0.466667  0.000000  0.000000      8.000000
  0.066667  0.066667  0.000000      6.000000
  0.133333  0.066667  0.000000     24.000000
  0.200000  0.066667  0.000000     24.000000
  0.266667  0.066667  0.000000     24.000000
  0.333333  0.066667  0.000000     24.000000
  0.400000  0.066667  0.000000     24.000000
  0.466667  0.066667  0.000000     24.000000
 -0.466667  0.066667  0.000000     24.000000
 -0.400000  0.066667  0.000000     24.000000
 -0.333333  0.066667  0.000000     24.000000
 -0.266667  0.066667  0.000000     24.000000
 -0.200000  0.066667  0.000000     24.000000
 -0.133333  0.066667  0.000000     24.000000
 -0.066667  0.066667  0.000000     12.000000
  0.133333  0.133333  0.000000      6.000000
  0.200000  0.133333  0.000000     24.000000
  0.266667  0.133333  0.000000     24.000000
  0.333333  0.133333  0.000000     24.000000
  0.400000  0.133333  0.000000     24.000000
  0.466667  0.133333  0.000000     24.000000
 -0.466667  0.133333  0.000000     24.000000
 -0.400000  0.133333  0.000000     24.000000
 -0.333333  0.133333  0.000000     24.000000
 -0.266667  0.133333  0.000000     24.000000
 -0.200000  0.133333  0.000000     24.000000
 -0.133333  0.133333  0.000000     12.000000
  0.200000  0.200000  0.000000      6.000000
  0.266667  0.200000  0.000000     24.000000
  0.333333  0.200000  0.000000     24.000000
  0.400000  0.200000  0.000000     24.000000
  0.466667  0.200000  0.000000     24.000000
 -0.466667  0.200000  0.000000     24.000000
 -0.400000  0.200000  0.000000     24.000000
 -0.333333  0.200000  0.000000     24.000000
 -0.266667  0.200000  0.000000     24.000000
 -0.200000  0.200000  0.000000     12.000000
  0.266667  0.266667  0.000000      6.000000
  0.333333  0.266667  0.000000     24.000000
  0.400000  0.266667  0.000000     24.000000
  0.466667  0.266667  0.000000     24.000000
 -0.466667  0.266667  0.000000     24.000000
 -0.400000  0.266667  0.000000     24.000000
 -0.333333  0.266667  0.000000     24.000000
 -0.266667  0.266667  0.000000     12.000000
  0.333333  0.333333  0.000000      6.000000
  0.400000  0.333333  0.000000     24.000000
  0.466667  0.333333  0.000000     24.000000
 -0.466667  0.333333  0.000000     24.000000
 -0.400000  0.333333  0.000000     24.000000
 -0.333333  0.333333  0.000000     12.000000
  0.400000  0.400000  0.000000      6.000000
  0.466667  0.400000  0.000000     24.000000
[...]
 -0.466667  0.333333  0.133333     48.000000
 -0.400000  0.333333  0.133333     48.000000
 -0.333333  0.333333  0.133333     48.000000
 -0.266667  0.333333  0.133333     48.000000
 -0.200000  0.333333  0.133333     24.000000
 -0.466667  0.400000  0.133333     24.000000
 -0.400000  0.400000  0.133333     48.000000
 -0.333333  0.400000  0.133333     48.000000
 -0.266667  0.400000  0.133333     24.000000
 -0.400000  0.466667  0.133333     24.000000
 -0.333333  0.466667  0.133333     24.000000
 -0.400000  0.400000  0.200000     24.000000
 -0.333333  0.400000  0.200000     48.000000
 -0.333333  0.466667  0.200000     24.000000
 -0.266667  0.466667  0.200000     24.000000

 Following cartesian coordinates:
            Coordinates               Weight
  0.000000  0.000000  0.000000      1.000000
 -0.062253  0.062253  0.062253      8.000000
 -0.124505  0.124505  0.124505      8.000000
 -0.186758  0.186758  0.186758      8.000000
 -0.249010  0.249010  0.249010      8.000000
 -0.311263  0.311263  0.311263      8.000000
 -0.373515  0.373515  0.373515      8.000000
 -0.435768  0.435768  0.435768      8.000000
  0.000000  0.000000  0.124505      6.000000
 -0.062253  0.062253  0.186758     24.000000
 -0.124505  0.124505  0.249010     24.000000
 -0.186758  0.186758  0.311263     24.000000
 -0.249010  0.249010  0.373515     24.000000
 -0.311263  0.311263  0.435768     24.000000
 -0.373515  0.373515  0.498020     24.000000
  0.498020 -0.498020 -0.373515     24.000000
  0.435768 -0.435768 -0.311263     24.000000
  0.373515 -0.373515 -0.249010     24.000000
  0.311263 -0.311263 -0.186758     24.000000
  0.249010 -0.249010 -0.124505     24.000000
  0.186758 -0.186758 -0.062253     24.000000
  0.124505 -0.124505  0.000000     12.000000
  0.000000  0.000000  0.249010      6.000000
 -0.062253  0.062253  0.311263     24.000000
 -0.124505  0.124505  0.373515     24.000000
 -0.186758  0.186758  0.435768     24.000000
 -0.249010  0.249010  0.498020     24.000000
 -0.311263  0.311263  0.560273     24.000000
[...]
 k-point  3 :   0.1333 0.0000 0.0000  plane waves:    1303
 k-point  4 :   0.2000 0.0000 0.0000  plane waves:    1315
 k-point  5 :   0.2667 0.0000 0.0000  plane waves:    1311
 k-point  6 :   0.3333 0.0000 0.0000  plane waves:    1308
 k-point  7 :   0.4000 0.0000 0.0000  plane waves:    1299
 k-point  8 :   0.4667 0.0000 0.0000  plane waves:    1296
 k-point  9 :   0.0667 0.0667 0.0000  plane waves:    1299
 k-point 10 :   0.1333 0.0667 0.0000  plane waves:    1301
 k-point 11 :   0.2000 0.0667 0.0000  plane waves:    1309
 k-point 12 :   0.2667 0.0667 0.0000  plane waves:    1311
 k-point 13 :   0.3333 0.0667 0.0000  plane waves:    1304
 k-point 14 :   0.4000 0.0667 0.0000  plane waves:    1297
 k-point 15 :   0.4667 0.0667 0.0000  plane waves:    1298
 k-point 16 :  -0.4667 0.0667 0.0000  plane waves:    1290
 k-point 17 :  -0.4000 0.0667 0.0000  plane waves:    1294
 k-point 18 :  -0.3333 0.0667 0.0000  plane waves:    1297
 k-point 19 :  -0.2667 0.0667 0.0000  plane waves:    1303
 k-point 20 :  -0.2000 0.0667 0.0000  plane waves:    1310
 k-point 21 :  -0.1333 0.0667 0.0000  plane waves:    1303
 k-point 22 :  -0.0667 0.0667 0.0000  plane waves:    1295
 k-point 23 :   0.1333 0.1333 0.0000  plane waves:    1307
 k-point 24 :   0.2000 0.1333 0.0000  plane waves:    1313
 k-point 25 :   0.2667 0.1333 0.0000  plane waves:    1309
 k-point 26 :   0.3333 0.1333 0.0000  plane waves:    1304
 k-point 27 :   0.4000 0.1333 0.0000  plane waves:    1298
 k-point 28 :   0.4667 0.1333 0.0000  plane waves:    1292
 k-point 29 :  -0.4667 0.1333 0.0000  plane waves:    1294
 k-point 30 :  -0.4000 0.1333 0.0000  plane waves:    1294
 k-point 31 :  -0.3333 0.1333 0.0000  plane waves:    1301
 k-point 32 :  -0.2667 0.1333 0.0000  plane waves:    1305
 k-point 33 :  -0.2000 0.1333 0.0000  plane waves:    1305
 k-point 34 :  -0.1333 0.1333 0.0000  plane waves:    1311
 k-point 35 :   0.2000 0.2000 0.0000  plane waves:    1307
 k-point 36 :   0.2667 0.2000 0.0000  plane waves:    1308
 k-point 37 :   0.3333 0.2000 0.0000  plane waves:    1307
 k-point 38 :   0.4000 0.2000 0.0000  plane waves:    1286
 k-point 39 :   0.4667 0.2000 0.0000  plane waves:    1294
 k-point 40 :  -0.4667 0.2000 0.0000  plane waves:    1293
 k-point 41 :  -0.4000 0.2000 0.0000  plane waves:    1287
 k-point 42 :  -0.3333 0.2000 0.0000  plane waves:    1298
 k-point 43 :  -0.2667 0.2000 0.0000  plane waves:    1302
 k-point 44 :  -0.2000 0.2000 0.0000  plane waves:    1313
 k-point 45 :   0.2667 0.2667 0.0000  plane waves:    1299
 k-point 46 :   0.3333 0.2667 0.0000  plane waves:    1300
 k-point 47 :   0.4000 0.2667 0.0000  plane waves:    1295
 k-point 48 :   0.4667 0.2667 0.0000  plane waves:    1298
 k-point 49 :  -0.4667 0.2667 0.0000  plane waves:    1291
 k-point 50 :  -0.4000 0.2667 0.0000  plane waves:    1293
 k-point 51 :  -0.3333 0.2667 0.0000  plane waves:    1298
 k-point 52 :  -0.2667 0.2667 0.0000  plane waves:    1306
 k-point 53 :   0.3333 0.3333 0.0000  plane waves:    1299
 k-point 54 :   0.4000 0.3333 0.0000  plane waves:    1292
 k-point 55 :   0.4667 0.3333 0.0000  plane waves:    1296
 k-point 56 :  -0.4667 0.3333 0.0000  plane waves:    1291
 k-point 57 :  -0.4000 0.3333 0.0000  plane waves:    1294
 k-point 58 :  -0.3333 0.3333 0.0000  plane waves:    1292
 k-point 59 :   0.4000 0.4000 0.0000  plane waves:    1290
 k-point 60 :   0.4667 0.4000 0.0000  plane waves:    1292
[...]
 k-point 85 :  -0.4000 0.2667 0.0667  plane waves:    1291
 k-point 86 :  -0.3333 0.2667 0.0667  plane waves:    1293
 k-point 87 :  -0.2667 0.2667 0.0667  plane waves:    1299
 k-point 88 :  -0.2000 0.2667 0.0667  plane waves:    1301
 k-point 89 :   0.4000 0.3333 0.0667  plane waves:    1295
 k-point 90 :   0.4667 0.3333 0.0667  plane waves:    1293
 k-point 91 :  -0.4667 0.3333 0.0667  plane waves:    1291
 k-point 92 :  -0.4000 0.3333 0.0667  plane waves:    1295
 k-point 93 :  -0.3333 0.3333 0.0667  plane waves:    1294
 k-point 94 :  -0.2667 0.3333 0.0667  plane waves:    1295
 k-point 95 :   0.4667 0.4000 0.0667  plane waves:    1295
 k-point 96 :  -0.4667 0.4000 0.0667  plane waves:    1296
 k-point 97 :  -0.4000 0.4000 0.0667  plane waves:    1289
 k-point 98 :  -0.3333 0.4000 0.0667  plane waves:    1290
 k-point 99 :  -0.4667 0.4667 0.0667  plane waves:    1294
 k-point ** :  -0.4000 0.4667 0.0667  plane waves:    1296
 k-point ** :   0.4000 0.2667 0.1333  plane waves:    1302
 k-point ** :   0.4667 0.2667 0.1333  plane waves:    1297
 k-point ** :  -0.4667 0.2667 0.1333  plane waves:    1295
 k-point ** :  -0.4000 0.2667 0.1333  plane waves:    1287
 k-point ** :   0.4667 0.3333 0.1333  plane waves:    1295
 k-point ** :  -0.4667 0.3333 0.1333  plane waves:    1297
 k-point ** :  -0.4000 0.3333 0.1333  plane waves:    1296
 k-point ** :  -0.3333 0.3333 0.1333  plane waves:    1294
 k-point ** :  -0.2667 0.3333 0.1333  plane waves:    1292
 k-point ** :  -0.2000 0.3333 0.1333  plane waves:    1297
 k-point ** :  -0.4667 0.4000 0.1333  plane waves:    1293
 k-point ** :  -0.4000 0.4000 0.1333  plane waves:    1294
 k-point ** :  -0.3333 0.4000 0.1333  plane waves:    1286
 k-point ** :  -0.2667 0.4000 0.1333  plane waves:    1283
 k-point ** :  -0.4000 0.4667 0.1333  plane waves:    1298
 k-point ** :  -0.3333 0.4667 0.1333  plane waves:    1286
 k-point ** :  -0.4000 0.4000 0.2000  plane waves:    1294
 k-point ** :  -0.3333 0.4000 0.2000  plane waves:    1291
 k-point ** :  -0.3333 0.4667 0.2000  plane waves:    1294
 k-point ** :  -0.2667 0.4667 0.2000  plane waves:    1284

 maximum and minimum number of plane-waves per node :      1315     1283

 maximum number of plane-waves:      1315
 maximum index in each direction:
   IXMAX=    8   IYMAX=    7   IZMAX=    7
   IXMIN=   -8   IYMIN=   -8   IZMIN=   -7

 WARNING: aliasing errors must be expected set NGX to  34 to avoid them
 WARNING: aliasing errors must be expected set NGY to  32 to avoid them
 NGZ is ok and might be reduce to  30
 aliasing errors are usually negligible using standard VASP settings
 and one can safely disregard these warnings

 serial   3D FFT for wavefunctions
 parallel 3D FFT for charge:
    minimum data exchange during FFTs selected (reduces bandwidth)

 Broyden mixing: mesh for mixing (old mesh)
   NGX = 15   NGY = 15   NGZ = 15
  (NGX  = 60   NGY  = 60   NGZ  = 60)
  gives a total of   3375 points

 initial charge density was supplied:
 charge density of overlapping atoms calculated
 number of electron      42.0000000 magnetization      -0.5000000
 keeping initial charge density in first step

 Maximum index for augmentation-charges        42415 (set IRDMAX)

 First call to EWALD:  gamma=   0.478
 Maximum number of real-space cells 3x 3x 3
 Maximum number of reciprocal cells 3x 3x 3

 FEWALD executed in parallel

----------------------------------------- Iteration    1(   1)  ---------------------------------------

 eigenvalue-minimisations  : 13912
 total energy-change (2. order) : 0.4791643E+03  (-0.2301373E+04)
 number of electron      42.0000000 magnetization      -0.5000000
 augmentation part       42.0000000 magnetization      -0.5000000

 Free energy of the ion-electron system (eV)
  alpha Z        PSCENC =       294.47591998
  Ewald energy   TEWEN  =     -4113.69783220
  -Hartree energ DENC   =     -1426.54256098
  -exchange      EXHF   =         0.00000000
  -V(xc)+E(xc)   XCENC  =       156.75347324
  PAW double counting   =      4526.91047494    -4582.83274487
  entropy T*S    EENTRO =        -0.00176220
  eigenvalues    EBANDS =        81.77794280
  atomic energy  EATOM  =      5542.32138669
  Solvation  Ediel_sol  =         0.00000000
  free energy    TOTEN  =       479.16429740 eV

  energy without entropy =      479.16605960  energy(sigma->0) =      479.16517850

[...]

 eigenvalue-minimisations  : 13456
 total energy-change (2. order) :-0.4848671E+03  (-0.4744938E+03)
 number of electron      42.0000000 magnetization      -0.5000000
 augmentation part       42.0000000 magnetization      -0.5000000

[...]

 Broyden mixing:
  rms(total) = 0.25894E+01    rms(broyden)= 0.25892E+01
  rms(prec ) = 0.44849E+01
  weight for this iteration     100.00

[...]

 eigenvalues of (default mixing * dielectric matrix)
  average eigenvalue GAMMA=   0.4536
  0.4536

[...]

 Broyden mixing:
  rms(total) = 0.14349E-03    rms(broyden)= 0.12770E-03
  rms(prec ) = 0.25216E-03
  weight for this iteration     100.00
  WARNING: grid for Broyden might be to small

[...]

 eigenvalue-minimisations  :  9493
 total energy-change (2. order) :-0.2806273E-06  (-0.2307272E-07)
 number of electron      42.0000000 magnetization       0.0497755
 augmentation part       18.5949965 magnetization       0.2839485

 Broyden mixing:
  rms(total) = 0.28457E-03    rms(broyden)= 0.27740E-03
  rms(prec ) = 0.40279E-03
  weight for this iteration     100.00

 eigenvalues of (default mixing * dielectric matrix)
  average eigenvalue GAMMA=   2.1012
 27.7028  5.8832  5.8832  5.8038  5.8038  3.5894  1.7163  1.7163  2.3137  2.3137
  2.1189  2.1189  1.1340  1.1340  0.6067  0.6067  0.9205  0.9205  0.0155  0.0618
  0.0647  0.9017  0.9017  0.7574  0.7574  0.6085  0.6085  0.2983  0.4647  0.4647
  0.8114  0.4131  0.4939  0.4939  0.5035  0.6714  0.6714  0.6128  0.6128  0.5716

[...]

----------------------------------------- Iteration    1(  67)  ---------------------------------------

 eigenvalue-minimisations  :  6934
 total energy-change (2. order) : 0.3583682E-07  (-0.2197464E-08)
 number of electron      42.0000000 magnetization       0.0497755
 augmentation part       18.5949965 magnetization       0.2839485

 Free energy of the ion-electron system (eV)
  alpha Z        PSCENC =       294.47591998
  Ewald energy   TEWEN  =     -4113.69783220
  -Hartree energ DENC   =     -1346.39700761
  -exchange      EXHF   =         0.00000000
  -V(xc)+E(xc)   XCENC  =       153.86318727
  PAW double counting   =      5379.15810095    -5441.56539995
  entropy T*S    EENTRO =        -0.00407251
  eigenvalues    EBANDS =      -500.13466711
  atomic energy  EATOM  =      5542.32138669
  Solvation  Ediel_sol  =         0.00000000
  free energy    TOTEN  =       -31.98038450 eV

  energy without entropy =      -31.97631199  energy(sigma->0) =      -31.97834824

 average (electrostatic) potential at core
  the test charge radii are     0.9577  0.9339  1.0621
  (the norm of the test charge is              1.0000)
       1 -65.3951       2 -65.4995       3 -43.2370       4 -46.3612

 E-fermi :   9.0848     XC(G=0): -12.8696     alpha+bet :-16.2930

 spin component 1

 k-point     1 :       0.0000    0.0000    0.0000
  band No.  band energies     occupation
      1     -40.1035      1.00000
      2     -40.1035      1.00000
      3     -40.1035      1.00000
      4     -38.0636      1.00000
      5     -38.0636      1.00000
      6     -38.0636      1.00000
      7     -27.9073      1.00000
      8     -27.9073      1.00000
      9     -27.9073      1.00000
     10      -4.2791      1.00000
     11       4.7142      1.00000
     12       4.7142      1.00000
     13       4.7142      1.00000
     14       5.4829      1.00000
     15       5.4829      1.00000
     16       6.6296      1.00000
     17       6.6296      1.00000
     18       6.6296      1.00000
     19       8.6714      1.00000
     20       9.0678      0.68463
     21       9.0678      0.68463
     22      10.5450      0.00000
     23      10.5450      0.00000
     24      10.5450      0.00000
     25      11.3369      0.00000
     26      11.3369      0.00000
     27      12.7802      0.00000
     28      12.7802      0.00000

[...]

 spin component 2

[...]

 k-point   120 :      -0.2667    0.4667    0.2000
  band No.  band energies     occupation
      1     -39.3747      1.00000
      2     -39.3732      1.00000
      3     -39.3682      1.00000
      4     -37.1629      1.00000
      5     -37.1557      1.00000
      6     -37.1528      1.00000
      7     -29.2354      1.00000
      8     -29.2332      1.00000
      9     -29.2288      1.00000
     10      -2.8594      1.00000
     11       3.0473      1.00000
     12       3.3301      1.00000
     13       4.4343      1.00000
     14       5.7515      1.00000
     15       7.0443      1.00000
     16       7.1128      1.00000
     17       7.3490      1.00000
     18       7.3999      1.00000
     19       8.1769      1.00000
     20       8.2465      1.00000
     21       8.5802      1.00000
     22       9.8883      0.00000
     23       9.9951      0.00000
     24      10.4322      0.00000
     25      10.4905      0.00000
     26      10.6286      0.00000
     27      10.9823      0.00000
     28      11.0896      0.00000

 soft charge-density along one line, spin component           1
         0         1         2         3         4         5         6         7         8         9
 total charge-density along one line

 soft charge-density along one line, spin component           2
         0         1         2         3         4         5         6         7         8         9
 total charge-density along one line

------------------------ aborting loop because EDIFF is reached ----------------------------------------

 total charge

# of ion     s       p       d       tot
  1        0.359   6.278   5.159  11.795
  2        0.298   6.302   5.232  11.832
  3        0.260   6.228   3.222   9.710
  4        1.169   1.526   0.125   2.820
tot        2.085  20.334  13.737  36.157

 magnetization (x)

[...]

  FORCE on cell =-STRESS in cart. coord.  units (eV):
  Direction    XX          YY          ZZ          XY          YZ          ZX
  Alpha Z   294.47592   294.47592   294.47592
  Ewald   -1371.23374 -1371.23374 -1371.23374    -0.00000    -0.00000    -0.00000
  Hartree   448.79868   448.79868   448.79868     0.00000     0.00000     0.00000
  E(xc)    -236.24950  -236.24950  -236.24950     0.00000     0.00000     0.00000
  Local     273.18566   273.18566   273.18566     0.00014     0.00014     0.00014
  n-local  -117.61689  -117.96607  -116.67557    -1.20966     1.27928    -1.38712
  augment   228.30135   228.30135   228.30135    -0.00012    -0.00013    -0.00013
  Kinetic   480.83731   482.02356   477.65549    -0.00100    -0.25376     0.25681
  Fock        0.00000     0.00000     0.00000     0.00000     0.00000     0.00000
  Total       0.03097     0.03097     0.03097     0.00000    -0.00000     0.00000
  in kB       0.97149     0.97149     0.97149     0.00000    -0.00000     0.00000

 VOLUME and BASIS-vectors are now :
  energy-cutoff  :      500.00
  volume of cell :       51.08
      direct lattice vectors                 reciprocal lattice vectors
     0.000000000  2.944992801  2.944992801    -0.169779702  0.169779702  0.169779702
     2.944992801  0.000000000  2.944992801     0.169779702 -0.169779702  0.169779702
     2.944992801  2.944992801  0.000000000     0.169779702  0.169779702 -0.169779702

  length of vectors
     4.164848760  4.164848760  4.164848760     0.294067070  0.294067070  0.294067070

 FORCES acting on ions
    electron-ion (+dipol)            ewald-force                    non-local-force                 convergence-correction
   -.397E-06 -.397E-06 -.502E-06   -.390E-14 0.128E-13 0.877E-14   0.694E-17 -.347E-17 0.000E+00   0.213E-08 0.213E-08 0.213E-08
   0.305E-06 0.305E-06 0.377E-06   -.476E-13 -.516E-13 -.534E-13   0.000E+00 -.694E-17 0.000E+00   0.605E-09 0.605E-09 0.605E-09
   -.134E-07 -.134E-07 0.178E-07   0.574E-13 0.418E-13 0.623E-13   0.208E-16 0.139E-16 0.208E-16   -.129E-07 -.129E-07 -.129E-07
   0.279E-06 0.279E-06 0.305E-06   -.680E-14 -.166E-14 -.166E-13   0.607E-17 0.347E-17 0.358E-17   0.620E-09 0.620E-09 0.620E-09
   0.174E-06 0.174E-06 0.198E-06   -.865E-15 0.137E-14 0.106E-14   0.338E-16 0.694E-17 0.244E-16   -.956E-08 -.956E-08 -.956E-08

 POSITION                                       TOTAL-FORCE (eV/Angst)
      0.00000      0.00000      0.00000         0.000000      0.000000      0.000000
      1.47250      1.47250      1.47250        -0.000000     -0.000000     -0.000000
      4.41749      4.41749      4.41749         0.000000      0.000000      0.000000
      2.94499      2.94499      2.94499         0.000000      0.000000      0.000000
    total drift:                                0.000000      0.000000      0.000000

  FREE ENERGIE OF THE ION-ELECTRON SYSTEM (eV)
  free  energy   TOTEN  =       -31.98038450 eV

  energy  without entropy=      -31.97631199  energy(sigma->0) =      -31.97834824

 total charge

[...]

 magnetization (x)

# of ion     s       p       d       tot
  1        0.031   0.001   2.737   2.769
  2       -0.010  -0.023  -1.229  -1.262
  3       -0.018  -0.023  -1.368  -1.410
  4        0.030   0.055  -0.020   0.065
tot        0.033   0.010   0.119   0.162